read_data ${fname}
read_data nucl.txt
  orthogonal box = (-150.005 -150.005 -150.005) to (150.005 150.005 150.005)
  1 by 1 by 1 MPI processor grid
  reading atoms ...
  1607 atoms
  211 ellipsoids
  scanning bonds ...
  11 = max bonds/atom
  reading bonds ...
  4533 bonds
  14 = max # of 1-2 neighbors
  149 = max # of 1-3 neighbors
  1574 = max # of 1-4 neighbors
  112 = max # of special neighbors
  special bonds CPU = 0.00833742 secs
  read_data CPU = 0.0155102 secs

set type 1 mass 71.08
  30 settings made for mass
set type 2 mass 156.2
  26 settings made for mass
set type 3 mass 114.1
  2 settings made for mass
set type 4 mass 115.1
  4 settings made for mass
set type 5 mass 103.1
  0 settings made for mass
set type 6 mass 128.1
  8 settings made for mass
set type 7 mass 129.1
  2 settings made for mass
set type 8 mass 57.05
  36 settings made for mass
set type 9 mass 137.1
  4 settings made for mass
set type 10 mass 113.2
  0 settings made for mass
set type 11 mass 113.2
  10 settings made for mass
set type 12 mass 128.2
  64 settings made for mass
set type 13 mass 131.2
  0 settings made for mass
set type 14 mass 147.2
  0 settings made for mass
set type 15 mass 97.12
  12 settings made for mass
set type 16 mass 87.08
  24 settings made for mass
set type 17 mass 101.1
  20 settings made for mass
set type 18 mass 186.2
  0 settings made for mass
set type 19 mass 163.2
  0 settings made for mass
set type 20 mass 99.07
  8 settings made for mass
set type 21 mass 71.08
  78 settings made for mass
set type 22 mass 156.2
  80 settings made for mass
set type 23 mass 114.1
  22 settings made for mass
set type 24 mass 115.1
  20 settings made for mass
set type 25 mass 103.1
  2 settings made for mass
set type 26 mass 128.1
  28 settings made for mass
set type 27 mass 129.1
  46 settings made for mass
set type 28 mass 57.05
  48 settings made for mass
set type 29 mass 137.1
  14 settings made for mass
set type 30 mass 113.2
  48 settings made for mass
set type 31 mass 113.2
  74 settings made for mass
set type 32 mass 128.2
  50 settings made for mass
set type 33 mass 131.2
  10 settings made for mass
set type 34 mass 147.2
  18 settings made for mass
set type 35 mass 97.12
  20 settings made for mass
set type 36 mass 87.08
  32 settings made for mass
set type 37 mass 101.1
  46 settings made for mass
set type 38 mass 186.2
  0 settings made for mass
set type 39 mass 163.2
  30 settings made for mass
set type 40 mass 99.07
  58 settings made for mass
set type 41 mass 650.0
  211 settings made for mass
set type 42 mass 0.000001
  422 settings made for mass
pair_style ljlambda $l 20.34 $Q
pair_style ljlambda 0.125 20.34 $Q
pair_style ljlambda 0.125 20.34 28
dielectric  80.0

bond_style hybrid harmonic harmonic/DNA zero

bond_coeff 1 harmonic 10.0 3.8
bond_coeff 2 harmonic/DNA 0.0 0.0
bond_coeff 3 zero
bond_coeff 4 harmonic 10.0 3.832831851255673
bond_coeff 5 harmonic 10.0 6.579992401211438
bond_coeff 6 harmonic 10.0 6.738404855750355
bond_coeff 7 harmonic 10.0 6.7967197970786115
bond_coeff 8 harmonic 10.0 3.923378646014175
bond_coeff 9 harmonic 10.0 6.41293224664037
bond_coeff 10 harmonic 10.0 5.778174452195062
bond_coeff 11 harmonic 10.0 3.8321273465269914
bond_coeff 12 harmonic 10.0 5.656695148229221
bond_coeff 13 harmonic 10.0 7.131795005466723
bond_coeff 14 harmonic 10.0 7.443366173983388
bond_coeff 15 harmonic 10.0 3.8445545905865344
bond_coeff 16 harmonic 10.0 5.86226065609503
bond_coeff 17 harmonic 10.0 4.747430884173022
bond_coeff 18 harmonic 10.0 6.166692792737438
bond_coeff 19 harmonic 10.0 6.397663636047148
bond_coeff 20 harmonic 10.0 7.064969922087414
bond_coeff 21 harmonic 10.0 3.8275187785300226
bond_coeff 22 harmonic 10.0 5.097303208560401
bond_coeff 23 harmonic 10.0 5.089253383355963
bond_coeff 24 harmonic 10.0 6.7298291211590335
bond_coeff 25 harmonic 10.0 3.8560860986238343
bond_coeff 26 harmonic 10.0 5.356360704806927
bond_coeff 27 harmonic 10.0 5.132533487469898
bond_coeff 28 harmonic 10.0 6.060412527212973
bond_coeff 29 harmonic 10.0 3.827662472057839
bond_coeff 30 harmonic 10.0 5.5541065888223695
bond_coeff 31 harmonic 10.0 4.897080763066914
bond_coeff 32 harmonic 10.0 6.15801104253636
bond_coeff 33 harmonic 10.0 6.017025843388069
bond_coeff 34 harmonic 10.0 3.84430747989804
bond_coeff 35 harmonic 10.0 5.356958092051863
bond_coeff 36 harmonic 10.0 5.085479328440912
bond_coeff 37 harmonic 10.0 6.287964694557376
bond_coeff 38 harmonic 10.0 6.416930730497257
bond_coeff 39 harmonic 10.0 3.872789692198632
bond_coeff 40 harmonic 10.0 5.442517799695275
bond_coeff 41 harmonic 10.0 4.999299950993139
bond_coeff 42 harmonic 10.0 6.146738972821287
bond_coeff 43 harmonic 10.0 3.8565917595721633
bond_coeff 44 harmonic 10.0 5.532639514734349
bond_coeff 45 harmonic 10.0 5.124460947260702
bond_coeff 46 harmonic 10.0 6.437351940044916
bond_coeff 47 harmonic 10.0 6.780036873056088
bond_coeff 48 harmonic 10.0 3.892685448376226
bond_coeff 49 harmonic 10.0 5.404609144054742
bond_coeff 50 harmonic 10.0 5.462984532286374
bond_coeff 51 harmonic 10.0 5.97369232552197
bond_coeff 52 harmonic 10.0 4.600739071062401
bond_coeff 53 harmonic 10.0 5.713930346092796
bond_coeff 54 harmonic 10.0 5.969463962534667
bond_coeff 55 harmonic 10.0 7.400891838150314
bond_coeff 56 harmonic 10.0 7.3437115956442565
bond_coeff 57 harmonic 10.0 3.806336821669889
bond_coeff 58 harmonic 10.0 5.83144921953368
bond_coeff 59 harmonic 10.0 5.321447171587809
bond_coeff 60 harmonic 10.0 6.504805915628841
bond_coeff 61 harmonic 10.0 3.857019574749391
bond_coeff 62 harmonic 10.0 5.584442675863014
bond_coeff 63 harmonic 10.0 5.632344094602179
bond_coeff 64 harmonic 10.0 6.534079889318765
bond_coeff 65 harmonic 10.0 3.829177457366018
bond_coeff 66 harmonic 10.0 5.432872168567928
bond_coeff 67 harmonic 10.0 5.332504102201886
bond_coeff 68 harmonic 10.0 6.706094243298401
bond_coeff 69 harmonic 10.0 6.692279133449245
bond_coeff 70 harmonic 10.0 4.919552825206787
bond_coeff 71 harmonic 10.0 3.874596753211877
bond_coeff 72 harmonic 10.0 5.985599385191105
bond_coeff 73 harmonic 10.0 4.752115318466088
bond_coeff 74 harmonic 10.0 7.324848121292338
bond_coeff 75 harmonic 10.0 7.455326954600991
bond_coeff 76 harmonic 10.0 5.904582965798701
bond_coeff 77 harmonic 10.0 6.7789084667075885
bond_coeff 78 harmonic 10.0 5.305629086168763
bond_coeff 79 harmonic 10.0 3.814826339428836
bond_coeff 80 harmonic 10.0 6.577925204804323
bond_coeff 81 harmonic 10.0 7.277087329419649
bond_coeff 82 harmonic 10.0 7.393111658834845
bond_coeff 83 harmonic 10.0 6.438586801465058
bond_coeff 84 harmonic 10.0 3.7901715000775256
bond_coeff 85 harmonic 10.0 6.147080607898365
bond_coeff 86 harmonic 10.0 6.93689411768694
bond_coeff 87 harmonic 10.0 3.8075451409011634
bond_coeff 88 harmonic 10.0 6.727897145468261
bond_coeff 89 harmonic 10.0 6.141449340343036
bond_coeff 90 harmonic 10.0 6.460356027340909
bond_coeff 91 harmonic 10.0 4.479252169726542
bond_coeff 92 harmonic 10.0 7.490921171658408
bond_coeff 93 harmonic 10.0 3.7668289050605943
bond_coeff 94 harmonic 10.0 5.965618157408344
bond_coeff 95 harmonic 10.0 7.153726301725551
bond_coeff 96 harmonic 10.0 7.186062899808213
bond_coeff 97 harmonic 10.0 3.8500129869911013
bond_coeff 98 harmonic 10.0 5.951495610348705
bond_coeff 99 harmonic 10.0 7.03437985894989
bond_coeff 100 harmonic 10.0 7.342131843000351
bond_coeff 101 harmonic 10.0 3.780542289143184
bond_coeff 102 harmonic 10.0 6.32588333752687
bond_coeff 103 harmonic 10.0 5.916029073627001
bond_coeff 104 harmonic 10.0 7.404235274489838
bond_coeff 105 harmonic 10.0 6.8491240315824236
bond_coeff 106 harmonic 10.0 3.809055000915583
bond_coeff 107 harmonic 10.0 6.362303042138111
bond_coeff 108 harmonic 10.0 7.320689858203258
bond_coeff 109 harmonic 10.0 7.278076669010847
bond_coeff 110 harmonic 10.0 5.702744953090598
bond_coeff 111 harmonic 10.0 7.458056046987052
bond_coeff 112 harmonic 10.0 3.821073147690302
bond_coeff 113 harmonic 10.0 6.044261741519787
bond_coeff 114 harmonic 10.0 5.505951325611223
bond_coeff 115 harmonic 10.0 6.105784142925452
bond_coeff 116 harmonic 10.0 7.464750498174727
bond_coeff 117 harmonic 10.0 3.8298955599337194
bond_coeff 118 harmonic 10.0 5.35788204424099
bond_coeff 119 harmonic 10.0 4.794705413265767
bond_coeff 120 harmonic 10.0 6.208550555483949
bond_coeff 121 harmonic 10.0 3.779999999999992
bond_coeff 122 harmonic 10.0 5.161443596514449
bond_coeff 123 harmonic 10.0 4.923636867194827
bond_coeff 124 harmonic 10.0 6.275013944207618
bond_coeff 125 harmonic 10.0 3.833549269280354
bond_coeff 126 harmonic 10.0 5.57549997758047
bond_coeff 127 harmonic 10.0 5.210700528719715
bond_coeff 128 harmonic 10.0 6.368296475510534
bond_coeff 129 harmonic 10.0 6.632932986243732
bond_coeff 130 harmonic 10.0 6.602045137682717
bond_coeff 131 harmonic 10.0 3.8581472237331624
bond_coeff 132 harmonic 10.0 5.376997303328324
bond_coeff 133 harmonic 10.0 5.020846542167964
bond_coeff 134 harmonic 10.0 6.206254909363597
bond_coeff 135 harmonic 10.0 7.3318142365992935
bond_coeff 136 harmonic 10.0 7.392164770890867
bond_coeff 137 harmonic 10.0 3.8567602984888785
bond_coeff 138 harmonic 10.0 5.463753288720114
bond_coeff 139 harmonic 10.0 5.394932807737256
bond_coeff 140 harmonic 10.0 6.291343258796172
bond_coeff 141 harmonic 10.0 6.295990787795048
bond_coeff 142 harmonic 10.0 3.8186123133934426
bond_coeff 143 harmonic 10.0 5.722700411519023
bond_coeff 144 harmonic 10.0 5.375630195614287
bond_coeff 145 harmonic 10.0 6.42667098893355
bond_coeff 146 harmonic 10.0 3.7306969858191263
bond_coeff 147 harmonic 10.0 5.366544512067334
bond_coeff 148 harmonic 10.0 4.999609984788803
bond_coeff 149 harmonic 10.0 6.3811362624535874
bond_coeff 150 harmonic 10.0 6.146714569589213
bond_coeff 151 harmonic 10.0 3.8214526033957466
bond_coeff 152 harmonic 10.0 5.224174575949779
bond_coeff 153 harmonic 10.0 5.076475155065783
bond_coeff 154 harmonic 10.0 6.18654992705953
bond_coeff 155 harmonic 10.0 7.229481309195013
bond_coeff 156 harmonic 10.0 3.8017232934552347
bond_coeff 157 harmonic 10.0 5.587101216194325
bond_coeff 158 harmonic 10.0 5.14887366323938
bond_coeff 159 harmonic 10.0 6.334232392326626
bond_coeff 160 harmonic 10.0 3.8181932900260573
bond_coeff 161 harmonic 10.0 5.434574500363402
bond_coeff 162 harmonic 10.0 5.47143491234247
bond_coeff 163 harmonic 10.0 6.893250321872832
bond_coeff 164 harmonic 10.0 3.8559823651048943
bond_coeff 165 harmonic 10.0 5.7310208514714
bond_coeff 166 harmonic 10.0 5.761084967260929
bond_coeff 167 harmonic 10.0 7.250399988966112
bond_coeff 168 harmonic 10.0 6.3073766337519475
bond_coeff 169 harmonic 10.0 7.3279396831578625
bond_coeff 170 harmonic 10.0 3.8106167479818818
bond_coeff 171 harmonic 10.0 5.514879871765106
bond_coeff 172 harmonic 10.0 5.5001181805484745
bond_coeff 173 harmonic 10.0 6.234019570068734
bond_coeff 174 harmonic 10.0 6.722120201246025
bond_coeff 175 harmonic 10.0 7.458397951302933
bond_coeff 176 harmonic 10.0 3.7950889317643206
bond_coeff 177 harmonic 10.0 5.311431068930479
bond_coeff 178 harmonic 10.0 5.2137318688248655
bond_coeff 179 harmonic 10.0 5.649575205269862
bond_coeff 180 harmonic 10.0 3.7846796429816827
bond_coeff 181 harmonic 10.0 6.019078002485099
bond_coeff 182 harmonic 10.0 3.81223031833072
bond_coeff 183 harmonic 10.0 7.2776644605257825
bond_coeff 184 harmonic 10.0 6.866177976137819
bond_coeff 185 harmonic 10.0 3.87673831977348
bond_coeff 186 harmonic 10.0 7.063186249845045
bond_coeff 187 harmonic 10.0 7.470194107250487
bond_coeff 188 harmonic 10.0 3.855710051339438
bond_coeff 189 harmonic 10.0 6.039147290801901
bond_coeff 190 harmonic 10.0 3.827296696102884
bond_coeff 191 harmonic 10.0 7.1328044975311204
bond_coeff 192 harmonic 10.0 7.114021366287848
bond_coeff 193 harmonic 10.0 3.836886758818945
bond_coeff 194 harmonic 10.0 7.056387177585999
bond_coeff 195 harmonic 10.0 4.968551096647793
bond_coeff 196 harmonic 10.0 5.910143822277092
bond_coeff 197 harmonic 10.0 7.457512990266932
bond_coeff 198 harmonic 10.0 3.8638452349958294
bond_coeff 199 harmonic 10.0 6.6578224668430455
bond_coeff 200 harmonic 10.0 6.256580535723981
bond_coeff 201 harmonic 10.0 4.582782997262694
bond_coeff 202 harmonic 10.0 6.203579611804803
bond_coeff 203 harmonic 10.0 3.805482886573004
bond_coeff 204 harmonic 10.0 6.408822044650632
bond_coeff 205 harmonic 10.0 5.6809330219603895
bond_coeff 206 harmonic 10.0 6.209218952493132
bond_coeff 207 harmonic 10.0 5.461666412369029
bond_coeff 208 harmonic 10.0 4.880624959982089
bond_coeff 209 harmonic 10.0 6.5092319055323244
bond_coeff 210 harmonic 10.0 3.873022075847227
bond_coeff 211 harmonic 10.0 5.24551236772919
bond_coeff 212 harmonic 10.0 5.1325334874699005
bond_coeff 213 harmonic 10.0 6.5739257677585545
bond_coeff 214 harmonic 10.0 6.767636219537798
bond_coeff 215 harmonic 10.0 6.550832008226139
bond_coeff 216 harmonic 10.0 6.052057501379164
bond_coeff 217 harmonic 10.0 3.8834134469561854
bond_coeff 218 harmonic 10.0 5.617917763727067
bond_coeff 219 harmonic 10.0 5.434243277587056
bond_coeff 220 harmonic 10.0 6.3026978350544605
bond_coeff 221 harmonic 10.0 3.847609647560418
bond_coeff 222 harmonic 10.0 5.518577715317597
bond_coeff 223 harmonic 10.0 4.941467393396425
bond_coeff 224 harmonic 10.0 5.906623400894961
bond_coeff 225 harmonic 10.0 7.351095156505579
bond_coeff 226 harmonic 10.0 5.997966322012799
bond_coeff 227 harmonic 10.0 3.7871625262193196
bond_coeff 228 harmonic 10.0 5.313661637703321
bond_coeff 229 harmonic 10.0 4.909674123605353
bond_coeff 230 harmonic 10.0 6.218882536276125
bond_coeff 231 harmonic 10.0 6.783634718939394
bond_coeff 232 harmonic 10.0 5.359897387077473
bond_coeff 233 harmonic 10.0 4.3970103479523335
bond_coeff 234 harmonic 10.0 6.856318253990265
bond_coeff 235 harmonic 10.0 3.8302219256852434
bond_coeff 236 harmonic 10.0 5.547080313101651
bond_coeff 237 harmonic 10.0 5.175142510115073
bond_coeff 238 harmonic 10.0 6.307210159809166
bond_coeff 239 harmonic 10.0 3.873744958047691
bond_coeff 240 harmonic 10.0 5.269487641127934
bond_coeff 241 harmonic 10.0 4.81143429758736
bond_coeff 242 harmonic 10.0 6.13035888019616
bond_coeff 243 harmonic 10.0 3.831814191737391
bond_coeff 244 harmonic 10.0 5.451348457033352
bond_coeff 245 harmonic 10.0 5.265529413078989
bond_coeff 246 harmonic 10.0 6.245846619954748
bond_coeff 247 harmonic 10.0 6.212423037752653
bond_coeff 248 harmonic 10.0 7.005669132923713
bond_coeff 249 harmonic 10.0 6.977177079593153
bond_coeff 250 harmonic 10.0 3.812925386104463
bond_coeff 251 harmonic 10.0 5.6071918105233305
bond_coeff 252 harmonic 10.0 5.0938197847980335
bond_coeff 253 harmonic 10.0 5.884632528884019
bond_coeff 254 harmonic 10.0 7.280865333186716
bond_coeff 255 harmonic 10.0 3.838150596315887
bond_coeff 256 harmonic 10.0 5.270806389917954
bond_coeff 257 harmonic 10.0 4.752693972895792
bond_coeff 258 harmonic 10.0 6.177523775753531
bond_coeff 259 harmonic 10.0 3.800078946548358
bond_coeff 260 harmonic 10.0 5.519066950128447
bond_coeff 261 harmonic 10.0 5.526698833842874
bond_coeff 262 harmonic 10.0 6.102745283886592
bond_coeff 263 harmonic 10.0 6.369434825791058
bond_coeff 264 harmonic 10.0 3.841080577129308
bond_coeff 265 harmonic 10.0 5.582705437330555
bond_coeff 266 harmonic 10.0 5.0762289152480005
bond_coeff 267 harmonic 10.0 5.728813140607737
bond_coeff 268 harmonic 10.0 7.088060383489976
bond_coeff 269 harmonic 10.0 6.627593831851811
bond_coeff 270 harmonic 10.0 3.802538625707839
bond_coeff 271 harmonic 10.0 5.59129680843362
bond_coeff 272 harmonic 10.0 4.902183187111644
bond_coeff 273 harmonic 10.0 6.3120598856474714
bond_coeff 274 harmonic 10.0 7.331971085594929
bond_coeff 275 harmonic 10.0 7.208508861061363
bond_coeff 276 harmonic 10.0 3.81065611148528
bond_coeff 277 harmonic 10.0 5.116844730886436
bond_coeff 278 harmonic 10.0 5.231214008239388
bond_coeff 279 harmonic 10.0 5.95449410109708
bond_coeff 280 harmonic 10.0 3.8383590243748755
bond_coeff 281 harmonic 10.0 5.728760773500685
bond_coeff 282 harmonic 10.0 5.325514059694156
bond_coeff 283 harmonic 10.0 6.140789851476766
bond_coeff 284 harmonic 10.0 6.4511161824912
bond_coeff 285 harmonic 10.0 3.745143521949488
bond_coeff 286 harmonic 10.0 5.6472028474281135
bond_coeff 287 harmonic 10.0 5.642065224720467
bond_coeff 288 harmonic 10.0 6.296268736323119
bond_coeff 289 harmonic 10.0 3.8055748580207958
bond_coeff 290 harmonic 10.0 5.541714536134103
bond_coeff 291 harmonic 10.0 4.810457358713405
bond_coeff 292 harmonic 10.0 6.14873970826541
bond_coeff 293 harmonic 10.0 7.339679829529359
bond_coeff 294 harmonic 10.0 3.8445545905865317
bond_coeff 295 harmonic 10.0 5.194391205906622
bond_coeff 296 harmonic 10.0 4.926763643610267
bond_coeff 297 harmonic 10.0 6.366498252571821
bond_coeff 298 harmonic 10.0 6.4252470769613135
bond_coeff 299 harmonic 10.0 6.513447627792829
bond_coeff 300 harmonic 10.0 6.8176315535528795
bond_coeff 301 harmonic 10.0 5.108532078787398
bond_coeff 302 harmonic 10.0 3.8132007552710925
bond_coeff 303 harmonic 10.0 5.431795283329429
bond_coeff 304 harmonic 10.0 5.161482345218275
bond_coeff 305 harmonic 10.0 6.541261346254242
bond_coeff 306 harmonic 10.0 7.0832266658634975
bond_coeff 307 harmonic 10.0 3.866897981586788
bond_coeff 308 harmonic 10.0 5.521720746289158
bond_coeff 309 harmonic 10.0 5.1331861450759835
bond_coeff 310 harmonic 10.0 5.868781815675212
bond_coeff 311 harmonic 10.0 3.8197513008048096
bond_coeff 312 harmonic 10.0 5.219396516839852
bond_coeff 313 harmonic 10.0 4.609783075156578
bond_coeff 314 harmonic 10.0 5.812649998064579
bond_coeff 315 harmonic 10.0 5.940117843948897
bond_coeff 316 harmonic 10.0 5.14867944234247
bond_coeff 317 harmonic 10.0 7.222374955649982
bond_coeff 318 harmonic 10.0 3.893918335045034
bond_coeff 319 harmonic 10.0 5.693821212507464
bond_coeff 320 harmonic 10.0 5.502199560175914
bond_coeff 321 harmonic 10.0 6.371852164010092
bond_coeff 322 harmonic 10.0 5.297848619958857
bond_coeff 323 harmonic 10.0 6.747644033290442
bond_coeff 324 harmonic 10.0 3.8464269133833895
bond_coeff 325 harmonic 10.0 5.4271539502763355
bond_coeff 326 harmonic 10.0 4.933203827128998
bond_coeff 327 harmonic 10.0 6.157994803505467
bond_coeff 328 harmonic 10.0 6.491579160728159
bond_coeff 329 harmonic 10.0 6.830944297825893
bond_coeff 330 harmonic 10.0 3.7964457061836105
bond_coeff 331 harmonic 10.0 5.442655601817938
bond_coeff 332 harmonic 10.0 5.0764062091208
bond_coeff 333 harmonic 10.0 6.352015428192864
bond_coeff 334 harmonic 10.0 6.931918926242576
bond_coeff 335 harmonic 10.0 5.2565863447678725
bond_coeff 336 harmonic 10.0 5.510508143538121
bond_coeff 337 harmonic 10.0 6.2854275908644475
bond_coeff 338 harmonic 10.0 3.8221067489017164
bond_coeff 339 harmonic 10.0 5.279024531104212
bond_coeff 340 harmonic 10.0 4.9193800422411
bond_coeff 341 harmonic 10.0 6.487195079539389
bond_coeff 342 harmonic 10.0 6.40175757116747
bond_coeff 343 harmonic 10.0 6.241746550445646
bond_coeff 344 harmonic 10.0 3.801867961936612
bond_coeff 345 harmonic 10.0 5.409380740898164
bond_coeff 346 harmonic 10.0 5.30899237143923
bond_coeff 347 harmonic 10.0 6.394654017224064
bond_coeff 348 harmonic 10.0 3.838098487532589
bond_coeff 349 harmonic 10.0 5.467065026136043
bond_coeff 350 harmonic 10.0 4.8387395052843925
bond_coeff 351 harmonic 10.0 6.417234606900368
bond_coeff 352 harmonic 10.0 5.505796945038925
bond_coeff 353 harmonic 10.0 7.064962844912925
bond_coeff 354 harmonic 10.0 3.810852922903206
bond_coeff 355 harmonic 10.0 5.149116429058481
bond_coeff 356 harmonic 10.0 4.764063391685694
bond_coeff 357 harmonic 10.0 5.980668858915358
bond_coeff 358 harmonic 10.0 5.181438024332611
bond_coeff 359 harmonic 10.0 6.689125503382339
bond_coeff 360 harmonic 10.0 6.973406628040571
bond_coeff 361 harmonic 10.0 6.066316839730693
bond_coeff 362 harmonic 10.0 6.076775460719279
bond_coeff 363 harmonic 10.0 3.7693235467388617
bond_coeff 364 harmonic 10.0 5.0775289265547165
bond_coeff 365 harmonic 10.0 4.449202175671503
bond_coeff 366 harmonic 10.0 5.380269509978087
bond_coeff 367 harmonic 10.0 6.95691023371726
bond_coeff 368 harmonic 10.0 3.849324616085282
bond_coeff 369 harmonic 10.0 5.541173160983178
bond_coeff 370 harmonic 10.0 6.010931708146422
bond_coeff 371 harmonic 10.0 3.8816877772433047
bond_coeff 372 harmonic 10.0 5.714420355556621
bond_coeff 373 harmonic 10.0 6.250839943559593
bond_coeff 374 harmonic 10.0 4.49308357367188
bond_coeff 375 harmonic 10.0 7.1578418535198205
bond_coeff 376 harmonic 10.0 3.749573309057969
bond_coeff 377 harmonic 10.0 7.0749134270321505
bond_coeff 378 harmonic 10.0 3.793903003504431
bond_coeff 379 harmonic 10.0 5.3639630871213075
bond_coeff 380 harmonic 10.0 7.387455583622812
bond_coeff 381 harmonic 10.0 3.8338492406457605
bond_coeff 382 harmonic 10.0 6.739688420097779
bond_coeff 383 harmonic 10.0 6.524001839362098
bond_coeff 384 harmonic 10.0 5.673455737026598
bond_coeff 385 harmonic 10.0 3.8318402889473386
bond_coeff 386 harmonic 10.0 6.568081911791298
bond_coeff 387 harmonic 10.0 7.154061783350773
bond_coeff 388 harmonic 10.0 4.4477072745404485
bond_coeff 389 harmonic 10.0 5.126821627480328
bond_coeff 390 harmonic 10.0 6.123307929542663
bond_coeff 391 harmonic 10.0 3.811180919347698
bond_coeff 392 harmonic 10.0 7.075090105433291
bond_coeff 393 harmonic 10.0 6.616086456508873
bond_coeff 394 harmonic 10.0 6.590318656939135
bond_coeff 395 harmonic 10.0 5.10263657338046
bond_coeff 396 harmonic 10.0 5.748330192325428
bond_coeff 397 harmonic 10.0 7.464770592590232
bond_coeff 398 harmonic 10.0 3.8337709895088996
bond_coeff 399 harmonic 10.0 5.3272319266200645
bond_coeff 400 harmonic 10.0 5.852324324573964
bond_coeff 401 harmonic 10.0 7.275005154637361
bond_coeff 402 harmonic 10.0 7.1703974785223625
bond_coeff 403 harmonic 10.0 5.574890133446586
bond_coeff 404 harmonic 10.0 6.586850537244635
bond_coeff 405 harmonic 10.0 6.074166609502892
bond_coeff 406 harmonic 10.0 3.814420008336786
bond_coeff 407 harmonic 10.0 5.64358928342593
bond_coeff 408 harmonic 10.0 5.417111776583534
bond_coeff 409 harmonic 10.0 6.740356073680366
bond_coeff 410 harmonic 10.0 6.719627965892174
bond_coeff 411 harmonic 10.0 6.00087493620722
bond_coeff 412 harmonic 10.0 6.310039619526955
bond_coeff 413 harmonic 10.0 3.791398158990958
bond_coeff 414 harmonic 10.0 5.372308628513457
bond_coeff 415 harmonic 10.0 5.457820077650057
bond_coeff 416 harmonic 10.0 6.276918033557548
bond_coeff 417 harmonic 10.0 3.778227097462527
bond_coeff 418 harmonic 10.0 5.739381499778535
bond_coeff 419 harmonic 10.0 5.250923728259627
bond_coeff 420 harmonic 10.0 6.095285063063087
bond_coeff 421 harmonic 10.0 3.919630084587053
bond_coeff 422 harmonic 10.0 5.493923916473533
bond_coeff 423 harmonic 10.0 5.05336521537874
bond_coeff 424 harmonic 10.0 6.241730529268283
bond_coeff 425 harmonic 10.0 3.8353487455510544
bond_coeff 426 harmonic 10.0 5.386483082680197
bond_coeff 427 harmonic 10.0 5.2424707915256805
bond_coeff 428 harmonic 10.0 6.088620533421352
bond_coeff 429 harmonic 10.0 3.8432408199330914
bond_coeff 430 harmonic 10.0 5.7606249660952535
bond_coeff 431 harmonic 10.0 5.379200684116553
bond_coeff 432 harmonic 10.0 5.969011643480018
bond_coeff 433 harmonic 10.0 7.4570034196049555
bond_coeff 434 harmonic 10.0 3.8516100529518766
bond_coeff 435 harmonic 10.0 5.547837416507448
bond_coeff 436 harmonic 10.0 5.248599813283541
bond_coeff 437 harmonic 10.0 5.940420860511487
bond_coeff 438 harmonic 10.0 6.87396537669488
bond_coeff 439 harmonic 10.0 3.871614650246085
bond_coeff 440 harmonic 10.0 5.737621458409404
bond_coeff 441 harmonic 10.0 5.169613138330568
bond_coeff 442 harmonic 10.0 6.057474721366988
bond_coeff 443 harmonic 10.0 5.3148565361635285
bond_coeff 444 harmonic 10.0 5.7909325673849885
bond_coeff 445 harmonic 10.0 3.874906450483669
bond_coeff 446 harmonic 10.0 5.388329982471374
bond_coeff 447 harmonic 10.0 4.789384094014589
bond_coeff 448 harmonic 10.0 6.051999669530741
bond_coeff 449 harmonic 10.0 5.1230557287618845
bond_coeff 450 harmonic 10.0 7.055302970106951
bond_coeff 451 harmonic 10.0 3.8667040228080545
bond_coeff 452 harmonic 10.0 5.294761562148005
bond_coeff 453 harmonic 10.0 6.440263969745339
bond_coeff 454 harmonic 10.0 6.519777603569006
bond_coeff 455 harmonic 10.0 6.249415972712964
bond_coeff 456 harmonic 10.0 5.944838097038473
bond_coeff 457 harmonic 10.0 3.8239900627485937
bond_coeff 458 harmonic 10.0 5.7730581150721205
bond_coeff 459 harmonic 10.0 5.721905277090844
bond_coeff 460 harmonic 10.0 4.773981566784694
bond_coeff 461 harmonic 10.0 7.18772564863184
bond_coeff 462 harmonic 10.0 3.876506158901343
bond_coeff 463 harmonic 10.0 5.419492596175398
bond_coeff 464 harmonic 10.0 6.943205311669822
bond_coeff 465 harmonic 10.0 7.43853480196202
bond_coeff 466 harmonic 10.0 3.7904353311987955
bond_coeff 467 harmonic 10.0 6.790537533951212
bond_coeff 468 harmonic 10.0 3.8516230345141516
bond_coeff 469 harmonic 10.0 6.8859639848026974
bond_coeff 470 harmonic 10.0 5.4710419482946735
bond_coeff 471 harmonic 10.0 3.833653609808789
bond_coeff 472 harmonic 10.0 5.354521453874287
bond_coeff 473 harmonic 10.0 5.894955470569746
bond_coeff 474 harmonic 10.0 6.1081011779439125
bond_coeff 475 harmonic 10.0 7.376943811633631
bond_coeff 476 harmonic 10.0 3.866341940387571
bond_coeff 477 harmonic 10.0 5.654891687733742
bond_coeff 478 harmonic 10.0 7.189367148782994
bond_coeff 479 harmonic 10.0 3.8602072483222862
bond_coeff 480 harmonic 10.0 5.873235905359144
bond_coeff 481 harmonic 10.0 3.727318070677625
bond_coeff 482 harmonic 10.0 6.8297657353675
bond_coeff 483 harmonic 10.0 3.7982364328725025
bond_coeff 484 harmonic 10.0 5.900516926507375
bond_coeff 485 harmonic 10.0 5.735311674181285
bond_coeff 486 harmonic 10.0 6.574868819984185
bond_coeff 487 harmonic 10.0 3.844385516568283
bond_coeff 488 harmonic 10.0 5.318646444350281
bond_coeff 489 harmonic 10.0 4.957630482397817
bond_coeff 490 harmonic 10.0 6.1152105442085976
bond_coeff 491 harmonic 10.0 6.637145470757726
bond_coeff 492 harmonic 10.0 3.782287667536657
bond_coeff 493 harmonic 10.0 5.461373453628678
bond_coeff 494 harmonic 10.0 5.074258566529697
bond_coeff 495 harmonic 10.0 6.265221464561319
bond_coeff 496 harmonic 10.0 3.806376229433977
bond_coeff 497 harmonic 10.0 5.374960464970875
bond_coeff 498 harmonic 10.0 5.0301192828798635
bond_coeff 499 harmonic 10.0 6.069868202852508
bond_coeff 500 harmonic 10.0 3.794983530926061
bond_coeff 501 harmonic 10.0 5.349542036473781
bond_coeff 502 harmonic 10.0 4.802603460624238
bond_coeff 503 harmonic 10.0 6.156541236765961
bond_coeff 504 harmonic 10.0 7.171011086311321
bond_coeff 505 harmonic 10.0 3.8218712694176475
bond_coeff 506 harmonic 10.0 5.402231020606198
bond_coeff 507 harmonic 10.0 5.268329906146706
bond_coeff 508 harmonic 10.0 6.007112451086619
bond_coeff 509 harmonic 10.0 3.8484542351442865
bond_coeff 510 harmonic 10.0 5.5617083706357695
bond_coeff 511 harmonic 10.0 4.736802719134515
bond_coeff 512 harmonic 10.0 5.936236181285242
bond_coeff 513 harmonic 10.0 3.837837933003412
bond_coeff 514 harmonic 10.0 5.25179017097979
bond_coeff 515 harmonic 10.0 4.797801579890523
bond_coeff 516 harmonic 10.0 6.3107606514587475
bond_coeff 517 harmonic 10.0 3.8309920386239273
bond_coeff 518 harmonic 10.0 5.256339030161578
bond_coeff 519 harmonic 10.0 4.680053418498573
bond_coeff 520 harmonic 10.0 6.583661595191556
bond_coeff 521 harmonic 10.0 5.550108107055209
bond_coeff 522 harmonic 10.0 3.8247875758007717
bond_coeff 523 harmonic 10.0 5.072218449554396
bond_coeff 524 harmonic 10.0 5.078237883360722
bond_coeff 525 harmonic 10.0 5.032931551292924
bond_coeff 526 harmonic 10.0 6.700335812479844
bond_coeff 527 harmonic 10.0 3.8214395193434614
bond_coeff 528 harmonic 10.0 5.52457238164186
bond_coeff 529 harmonic 10.0 7.499293300038327
bond_coeff 530 harmonic 10.0 7.246412905707225
bond_coeff 531 harmonic 10.0 3.842225917355732
bond_coeff 532 harmonic 10.0 5.715995101467462
bond_coeff 533 harmonic 10.0 3.8909253398131405
bond_coeff 534 harmonic 10.0 6.390305157032794
bond_coeff 535 harmonic 10.0 6.795240981745969
bond_coeff 536 harmonic 10.0 5.390482353185096
bond_coeff 537 harmonic 10.0 7.332537077983299
bond_coeff 538 harmonic 10.0 3.840898332421724
bond_coeff 539 harmonic 10.0 5.714315357065978
bond_coeff 540 harmonic 10.0 6.892822353724184
bond_coeff 541 harmonic 10.0 3.7782932654837653
bond_coeff 542 harmonic 10.0 6.875383625660455
bond_coeff 543 harmonic 10.0 3.894329210531655
bond_coeff 544 harmonic 10.0 6.913016707632068
bond_coeff 545 harmonic 10.0 3.8246307011265928
bond_coeff 546 harmonic 10.0 6.542614156436254
bond_coeff 547 harmonic 10.0 6.914282319951939
bond_coeff 548 harmonic 10.0 3.835935348777394
bond_coeff 549 harmonic 10.0 5.207052909276036
bond_coeff 550 harmonic 10.0 5.540694902266335
bond_coeff 551 harmonic 10.0 3.8361699649520196
bond_coeff 552 harmonic 10.0 5.385805417948184
bond_coeff 553 harmonic 10.0 6.725570607762565
bond_coeff 554 harmonic 10.0 3.83527052500865
bond_coeff 555 harmonic 10.0 5.993488132965651
bond_coeff 556 harmonic 10.0 6.746925225612049
bond_coeff 557 harmonic 10.0 6.94853941486986
bond_coeff 558 harmonic 10.0 3.7963930249646225
bond_coeff 559 harmonic 10.0 5.902719712132713
bond_coeff 560 harmonic 10.0 5.229541088852818
bond_coeff 561 harmonic 10.0 5.9580785493311375
bond_coeff 562 harmonic 10.0 3.8244607463013844
bond_coeff 563 harmonic 10.0 5.378931120585222
bond_coeff 564 harmonic 10.0 4.998809858356296
bond_coeff 565 harmonic 10.0 6.370039246346935
bond_coeff 566 harmonic 10.0 3.864763899645096
bond_coeff 567 harmonic 10.0 5.40046294311885
bond_coeff 568 harmonic 10.0 5.022379913945178
bond_coeff 569 harmonic 10.0 6.335582056922619
bond_coeff 570 harmonic 10.0 3.8668074687007685
bond_coeff 571 harmonic 10.0 5.3318195768424275
bond_coeff 572 harmonic 10.0 4.816554785321144
bond_coeff 573 harmonic 10.0 6.385843718726619
bond_coeff 574 harmonic 10.0 3.7919520039156662
bond_coeff 575 harmonic 10.0 5.263325944685551
bond_coeff 576 harmonic 10.0 5.278598298791082
bond_coeff 577 harmonic 10.0 5.871779968629625
bond_coeff 578 harmonic 10.0 3.835765894837701
bond_coeff 579 harmonic 10.0 5.753929092368093
bond_coeff 580 harmonic 10.0 5.00946104885545
bond_coeff 581 harmonic 10.0 5.9798494964338165
bond_coeff 582 harmonic 10.0 3.893969696851783
bond_coeff 583 harmonic 10.0 5.450137612941533
bond_coeff 584 harmonic 10.0 5.24759945117765
bond_coeff 585 harmonic 10.0 6.64025601916071
bond_coeff 586 harmonic 10.0 3.860854827625593
bond_coeff 587 harmonic 10.0 5.513882479705182
bond_coeff 588 harmonic 10.0 5.569111239686261
bond_coeff 589 harmonic 10.0 6.40035155284455
bond_coeff 590 harmonic 10.0 3.831305260612878
bond_coeff 591 harmonic 10.0 5.785170697568048
bond_coeff 592 harmonic 10.0 5.2619863169719245
bond_coeff 593 harmonic 10.0 6.037366975760212
bond_coeff 594 harmonic 10.0 3.824251560763248
bond_coeff 595 harmonic 10.0 5.299641497309035
bond_coeff 596 harmonic 10.0 5.218917512281652
bond_coeff 597 harmonic 10.0 5.773915482582018
bond_coeff 598 harmonic 10.0 3.820405737614787
bond_coeff 599 harmonic 10.0 5.8328209298760445
bond_coeff 600 harmonic 10.0 5.394682567121083
bond_coeff 601 harmonic 10.0 6.229253566840887
bond_coeff 602 harmonic 10.0 3.802328234121818
bond_coeff 603 harmonic 10.0 5.549423393470717
bond_coeff 604 harmonic 10.0 5.296593244718724
bond_coeff 605 harmonic 10.0 6.491740906721419
bond_coeff 606 harmonic 10.0 3.8407030606387726
bond_coeff 607 harmonic 10.0 5.367028973277478
bond_coeff 608 harmonic 10.0 5.0569358311135355
bond_coeff 609 harmonic 10.0 5.90390548704837
bond_coeff 610 harmonic 10.0 3.8182980501788903
bond_coeff 611 harmonic 10.0 5.478521698414633
bond_coeff 612 harmonic 10.0 5.047860933108193
bond_coeff 613 harmonic 10.0 5.929224232561955
bond_coeff 614 harmonic 10.0 3.849311626771743
bond_coeff 615 harmonic 10.0 5.625966583619224
bond_coeff 616 harmonic 10.0 5.439954043923554
bond_coeff 617 harmonic 10.0 6.4942897995085
bond_coeff 618 harmonic 10.0 3.8046681852692417
bond_coeff 619 harmonic 10.0 5.634279013325494
bond_coeff 620 harmonic 10.0 5.3723923907324584
bond_coeff 621 harmonic 10.0 6.112462678822662
bond_coeff 622 harmonic 10.0 7.208446434565487
bond_coeff 623 harmonic 10.0 5.493350525863067
bond_coeff 624 harmonic 10.0 6.605527987980975
bond_coeff 625 harmonic 10.0 3.8759772961151557
bond_coeff 626 harmonic 10.0 5.45139431705322
bond_coeff 627 harmonic 10.0 5.049009803912056
bond_coeff 628 harmonic 10.0 5.964201539183604
bond_coeff 629 harmonic 10.0 3.8443334922974617
bond_coeff 630 harmonic 10.0 5.677402575121829
bond_coeff 631 harmonic 10.0 5.150155337463124
bond_coeff 632 harmonic 10.0 5.9450567701242285
bond_coeff 633 harmonic 10.0 3.848428250597899
bond_coeff 634 harmonic 10.0 5.330234516416696
bond_coeff 635 harmonic 10.0 4.786439177509723
bond_coeff 636 harmonic 10.0 5.938594109719907
bond_coeff 637 harmonic 10.0 5.265557900165948
bond_coeff 638 harmonic 10.0 6.027155216186158
bond_coeff 639 harmonic 10.0 3.899717938518109
bond_coeff 640 harmonic 10.0 5.52452712908534
bond_coeff 641 harmonic 10.0 4.927078241716887
bond_coeff 642 harmonic 10.0 6.154648649598123
bond_coeff 643 harmonic 10.0 6.945365361159897
bond_coeff 644 harmonic 10.0 4.872997024419376
bond_coeff 645 harmonic 10.0 5.07859232465061
bond_coeff 646 harmonic 10.0 6.872444979772486
bond_coeff 647 harmonic 10.0 5.264190346102622
bond_coeff 648 harmonic 10.0 3.8272444395413197
bond_coeff 649 harmonic 10.0 5.183058942362125
bond_coeff 650 harmonic 10.0 4.792880136202035
bond_coeff 651 harmonic 10.0 6.312566831329403
bond_coeff 652 harmonic 10.0 6.540160548488075
bond_coeff 653 harmonic 10.0 3.8182325754201996
bond_coeff 654 harmonic 10.0 5.529638324519953
bond_coeff 655 harmonic 10.0 5.480775492574031
bond_coeff 656 harmonic 10.0 6.173240640052836
bond_coeff 657 harmonic 10.0 6.823569447144212
bond_coeff 658 harmonic 10.0 7.3145129707999175
bond_coeff 659 harmonic 10.0 7.131044804234517
bond_coeff 660 harmonic 10.0 3.8732931724825503
bond_coeff 661 harmonic 10.0 5.597017062686171
bond_coeff 662 harmonic 10.0 4.829782603803199
bond_coeff 663 harmonic 10.0 6.208123710107598
bond_coeff 664 harmonic 10.0 5.725818718751049
bond_coeff 665 harmonic 10.0 3.8212301684143477
bond_coeff 666 harmonic 10.0 5.249723802258533
bond_coeff 667 harmonic 10.0 4.961048276322251
bond_coeff 668 harmonic 10.0 6.4083227134719145
bond_coeff 669 harmonic 10.0 5.256481713085299
bond_coeff 670 harmonic 10.0 6.42373722999316
bond_coeff 671 harmonic 10.0 7.104385969244654
bond_coeff 672 harmonic 10.0 5.511370065600751
bond_coeff 673 harmonic 10.0 6.506381482821313
bond_coeff 674 harmonic 10.0 3.8022887844034114
bond_coeff 675 harmonic 10.0 5.276381335726216
bond_coeff 676 harmonic 10.0 4.984335462225626
bond_coeff 677 harmonic 10.0 5.479762768587705
bond_coeff 678 harmonic 10.0 6.7594526405619515
bond_coeff 679 harmonic 10.0 3.861036130367081
bond_coeff 680 harmonic 10.0 5.5041620615675875
bond_coeff 681 harmonic 10.0 6.6958643952816095
bond_coeff 682 harmonic 10.0 3.792861716435225
bond_coeff 683 harmonic 10.0 5.513383716013246
bond_coeff 684 harmonic 10.0 7.262788720594874
bond_coeff 685 harmonic 10.0 3.888573003043671
bond_coeff 686 harmonic 10.0 7.227046422986371
bond_coeff 687 harmonic 10.0 3.7611966180990857
bond_coeff 688 harmonic 10.0 5.511125111989391
bond_coeff 689 harmonic 10.0 7.037371668456917
bond_coeff 690 harmonic 10.0 3.8014076340219174
bond_coeff 691 harmonic 10.0 6.187244944238118
bond_coeff 692 harmonic 10.0 3.83889306962308
bond_coeff 693 harmonic 10.0 6.324642282374544
bond_coeff 694 harmonic 10.0 3.760319135392629
bond_coeff 695 harmonic 10.0 7.002956518499878
bond_coeff 696 harmonic 10.0 6.713493874280366
bond_coeff 697 harmonic 10.0 3.8200261779207763
bond_coeff 698 harmonic 10.0 5.310640262717857
bond_coeff 699 harmonic 10.0 5.501981461255587
bond_coeff 700 harmonic 10.0 6.731522858907943
bond_coeff 701 harmonic 10.0 3.7986708201685464
bond_coeff 702 harmonic 10.0 5.4864195975153205
bond_coeff 703 harmonic 10.0 4.944471660349577
bond_coeff 704 harmonic 10.0 6.209267267560658
bond_coeff 705 harmonic 10.0 6.193512735112445
bond_coeff 706 harmonic 10.0 7.234459205773441
bond_coeff 707 harmonic 10.0 3.8601942956281405
bond_coeff 708 harmonic 10.0 5.277698361975603
bond_coeff 709 harmonic 10.0 4.93648660486383
bond_coeff 710 harmonic 10.0 6.218898616314632
bond_coeff 711 harmonic 10.0 6.989556495229138
bond_coeff 712 harmonic 10.0 5.912503699787426
bond_coeff 713 harmonic 10.0 3.8033406368612384
bond_coeff 714 harmonic 10.0 5.418542239385051
bond_coeff 715 harmonic 10.0 4.725674555023847
bond_coeff 716 harmonic 10.0 6.178770104155029
bond_coeff 717 harmonic 10.0 3.845022756759701
bond_coeff 718 harmonic 10.0 5.116580889617583
bond_coeff 719 harmonic 10.0 4.890582787357753
bond_coeff 720 harmonic 10.0 6.071251930203502
bond_coeff 721 harmonic 10.0 3.8816748962271337
bond_coeff 722 harmonic 10.0 5.595730515312545
bond_coeff 723 harmonic 10.0 5.186260695337243
bond_coeff 724 harmonic 10.0 6.179563091352008
bond_coeff 725 harmonic 10.0 6.779225619493727
bond_coeff 726 harmonic 10.0 5.439761024162738
bond_coeff 727 harmonic 10.0 7.166491470726804
bond_coeff 728 harmonic 10.0 7.00201399598716
bond_coeff 729 harmonic 10.0 3.838593492413596
bond_coeff 730 harmonic 10.0 5.541218277599258
bond_coeff 731 harmonic 10.0 5.369487871296489
bond_coeff 732 harmonic 10.0 6.7493481166702365
bond_coeff 733 harmonic 10.0 3.817577766071052
bond_coeff 734 harmonic 10.0 5.563685828657111
bond_coeff 735 harmonic 10.0 5.874427631693143
bond_coeff 736 harmonic 10.0 6.211924017564933
bond_coeff 737 harmonic 10.0 3.770530466658515
bond_coeff 738 harmonic 10.0 5.841763432389234
bond_coeff 739 harmonic 10.0 5.04518582412978
bond_coeff 740 harmonic 10.0 6.097384685256473
bond_coeff 741 harmonic 10.0 5.076268314421518
bond_coeff 742 harmonic 10.0 4.894221082051776
bond_coeff 743 harmonic 10.0 6.148211121944331
bond_coeff 744 harmonic 10.0 3.834801168248478
bond_coeff 745 harmonic 10.0 5.259828894555409
bond_coeff 746 harmonic 10.0 5.24459721999698
bond_coeff 747 harmonic 10.0 6.085803151597982
bond_coeff 748 harmonic 10.0 4.664171952233333
bond_coeff 749 harmonic 10.0 7.198138648289585
bond_coeff 750 harmonic 10.0 3.8393358800709336
bond_coeff 751 harmonic 10.0 5.582338219778519
bond_coeff 752 harmonic 10.0 3.8175122789586373
bond_coeff 753 harmonic 10.0 5.817267399733302
bond_coeff 754 harmonic 10.0 3.8541406305426955
bond_coeff 755 harmonic 10.0 5.804300130075979
bond_coeff 756 harmonic 10.0 3.9116620508423154
bond_coeff 757 harmonic 10.0 6.651270555314972
bond_coeff 758 harmonic 10.0 7.188024763452073
bond_coeff 759 harmonic 10.0 6.269003110543173
bond_coeff 760 harmonic 10.0 6.592692924746297
bond_coeff 761 harmonic 10.0 3.8331840550644207
bond_coeff 762 harmonic 10.0 6.592033070305389
bond_coeff 763 harmonic 10.0 5.43826259020286
bond_coeff 764 harmonic 10.0 5.720305935874411
bond_coeff 765 harmonic 10.0 3.8122696651732175
bond_coeff 766 harmonic 10.0 6.874110851593815
bond_coeff 767 harmonic 10.0 7.003841802896453
bond_coeff 768 harmonic 10.0 6.74084564427937
bond_coeff 769 harmonic 10.0 4.9252614143820015
bond_coeff 770 harmonic 10.0 6.659451929400802
bond_coeff 771 harmonic 10.0 7.343602658096353
bond_coeff 772 harmonic 10.0 3.8758998955081476
bond_coeff 773 harmonic 10.0 5.852367042488033
bond_coeff 774 harmonic 10.0 7.003613353119961
bond_coeff 775 harmonic 10.0 7.412489460363495
bond_coeff 776 harmonic 10.0 5.889193493170355
bond_coeff 777 harmonic 10.0 5.180048262323435
bond_coeff 778 harmonic 10.0 6.0107320685586965
bond_coeff 779 harmonic 10.0 7.1484124111581675
bond_coeff 780 harmonic 10.0 5.233411889007024
bond_coeff 781 harmonic 10.0 5.060958407258443
bond_coeff 782 harmonic 10.0 6.934940518850894
bond_coeff 783 harmonic 10.0 3.855697083537554
bond_coeff 784 harmonic 10.0 5.848948623470711
bond_coeff 785 harmonic 10.0 6.9568455495289125
bond_coeff 786 harmonic 10.0 5.838655667189148
bond_coeff 787 harmonic 10.0 7.041775344329013
bond_coeff 788 harmonic 10.0 4.2990464058905005
bond_coeff 789 harmonic 10.0 4.67287919809618
bond_coeff 790 harmonic 10.0 7.3037866891085965
bond_coeff 791 harmonic 10.0 5.809690181068159
bond_coeff 792 harmonic 10.0 3.8443985225259762
bond_coeff 793 harmonic 10.0 7.363056430586419
bond_coeff 794 harmonic 10.0 7.137716721753535
bond_coeff 795 harmonic 10.0 7.466786457372396
bond_coeff 796 harmonic 10.0 3.763668423227541
bond_coeff 797 harmonic 10.0 5.934130096315727
bond_coeff 798 harmonic 10.0 7.257313552548213
bond_coeff 799 harmonic 10.0 5.6941812405296615
bond_coeff 800 harmonic 10.0 5.245598154643577
bond_coeff 801 harmonic 10.0 5.896804219236026
bond_coeff 802 harmonic 10.0 3.814616625560158
bond_coeff 803 harmonic 10.0 5.340046816274178
bond_coeff 804 harmonic 10.0 7.0164164642643625
bond_coeff 805 harmonic 10.0 4.768542754343296
bond_coeff 806 harmonic 10.0 6.434407509631313
bond_coeff 807 harmonic 10.0 5.0241417177464305
bond_coeff 808 harmonic 10.0 4.642897802019762
bond_coeff 809 harmonic 10.0 3.8266957025611563
bond_coeff 810 harmonic 10.0 6.9586636648138125
bond_coeff 811 harmonic 10.0 6.152227238976132
bond_coeff 812 harmonic 10.0 6.714797092987987
bond_coeff 813 harmonic 10.0 3.782671013979404
bond_coeff 814 harmonic 10.0 5.501536149113269
bond_coeff 815 harmonic 10.0 6.2501919970509645
bond_coeff 816 harmonic 10.0 7.029502116081901
bond_coeff 817 harmonic 10.0 3.7702652426586667
bond_coeff 818 harmonic 10.0 6.865340486822199
bond_coeff 819 harmonic 10.0 7.319091473673475
bond_coeff 820 harmonic 10.0 6.787377991536949
bond_coeff 821 harmonic 10.0 6.92928567747067
bond_coeff 822 harmonic 10.0 6.725013011139826
bond_coeff 823 harmonic 10.0 3.824395377049821
bond_coeff 824 harmonic 10.0 6.252247595865027
bond_coeff 825 harmonic 10.0 6.141253943617691
bond_coeff 826 harmonic 10.0 7.277829346721445
bond_coeff 827 harmonic 10.0 6.095293266119345
bond_coeff 828 harmonic 10.0 5.750269558898959
bond_coeff 829 harmonic 10.0 3.8400781242052795
bond_coeff 830 harmonic 10.0 5.492558602327327
bond_coeff 831 harmonic 10.0 5.283086219247236
bond_coeff 832 harmonic 10.0 6.377820944491937
bond_coeff 833 harmonic 10.0 6.733721110946006
bond_coeff 834 harmonic 10.0 3.839739574502411
bond_coeff 835 harmonic 10.0 5.5509098353333055
bond_coeff 836 harmonic 10.0 5.227810249043087
bond_coeff 837 harmonic 10.0 6.1516176734254255
bond_coeff 838 harmonic 10.0 5.685112136097239
bond_coeff 839 harmonic 10.0 5.561825239972945
bond_coeff 840 harmonic 10.0 5.658922158856756
bond_coeff 841 harmonic 10.0 3.8249967320247573
bond_coeff 842 harmonic 10.0 5.47291512815612
bond_coeff 843 harmonic 10.0 5.048286838126385
bond_coeff 844 harmonic 10.0 6.425083657042919
bond_coeff 845 harmonic 10.0 7.448362236089229
bond_coeff 846 harmonic 10.0 3.8358571401969734
bond_coeff 847 harmonic 10.0 5.490118395808971
bond_coeff 848 harmonic 10.0 5.272826566463191
bond_coeff 849 harmonic 10.0 6.224949798994358
bond_coeff 850 harmonic 10.0 3.842655331928699
bond_coeff 851 harmonic 10.0 5.33015009169536
bond_coeff 852 harmonic 10.0 4.6547824868623024
bond_coeff 853 harmonic 10.0 6.30817723276702
bond_coeff 854 harmonic 10.0 5.695199733108571
bond_coeff 855 harmonic 10.0 6.633747055774724
bond_coeff 856 harmonic 10.0 3.825401939665932
bond_coeff 857 harmonic 10.0 5.326856483893657
bond_coeff 858 harmonic 10.0 5.284647575761327
bond_coeff 859 harmonic 10.0 6.0506032757072985
bond_coeff 860 harmonic 10.0 7.3410421603475315
bond_coeff 861 harmonic 10.0 4.941103115702005
bond_coeff 862 harmonic 10.0 3.800565747359196
bond_coeff 863 harmonic 10.0 5.43310224457446
bond_coeff 864 harmonic 10.0 4.715941051370327
bond_coeff 865 harmonic 10.0 5.838527211549159
bond_coeff 866 harmonic 10.0 3.8570584646852417
bond_coeff 867 harmonic 10.0 5.496271463455917
bond_coeff 868 harmonic 10.0 5.650725617122101
bond_coeff 869 harmonic 10.0 5.70164888431408
bond_coeff 870 harmonic 10.0 3.8408983324217214
bond_coeff 871 harmonic 10.0 5.803464482531101
bond_coeff 872 harmonic 10.0 5.34319192992353
bond_coeff 873 harmonic 10.0 7.3718993482005635
bond_coeff 874 harmonic 10.0 6.27121200407065
bond_coeff 875 harmonic 10.0 7.010948580613019
bond_coeff 876 harmonic 10.0 7.245039682431003
bond_coeff 877 harmonic 10.0 3.7585768583334773
bond_coeff 878 harmonic 10.0 5.761128361701367
bond_coeff 879 harmonic 10.0 7.02377391435687
bond_coeff 880 harmonic 10.0 7.2433417702052445
bond_coeff 881 harmonic 10.0 7.138928491027233
bond_coeff 882 harmonic 10.0 6.501853581864176
bond_coeff 883 harmonic 10.0 3.8284592201040812
bond_coeff 884 harmonic 10.0 5.77188877231709
bond_coeff 885 harmonic 10.0 7.309541709300245
bond_coeff 886 harmonic 10.0 7.221149492982404
bond_coeff 887 harmonic 10.0 3.8146559477887476
bond_coeff 888 harmonic 10.0 5.595408832248089
bond_coeff 889 harmonic 10.0 7.415504028722535
bond_coeff 890 harmonic 10.0 5.483985776786814
bond_coeff 891 harmonic 10.0 3.81358099428869
bond_coeff 892 harmonic 10.0 5.839777393017636
bond_coeff 893 harmonic 10.0 7.445381118519048
bond_coeff 894 harmonic 10.0 5.734544445725386
bond_coeff 895 harmonic 10.0 5.400351840389657
bond_coeff 896 harmonic 10.0 6.968407278568037
bond_coeff 897 harmonic 10.0 5.522761990163974
bond_coeff 898 harmonic 10.0 6.958570255447597
bond_coeff 899 harmonic 10.0 6.378252111668221
bond_coeff 900 harmonic 10.0 6.228298322977164
bond_coeff 901 harmonic 10.0 3.8354921457356665
bond_coeff 902 harmonic 10.0 7.398249793025377
bond_coeff 903 harmonic 10.0 7.003691883571124
bond_coeff 904 harmonic 10.0 6.5593139885204375
bond_coeff 905 harmonic 10.0 5.1621894579722705
bond_coeff 906 harmonic 10.0 5.9058868936003295
bond_coeff 907 harmonic 10.0 6.052949694157392
bond_coeff 908 harmonic 10.0 7.421900026273594
bond_coeff 909 harmonic 10.0 3.8531675281513555
bond_coeff 910 harmonic 10.0 5.345399891495499
bond_coeff 911 harmonic 10.0 6.885266879359142
bond_coeff 912 harmonic 10.0 5.9758681377687655
bond_coeff 913 harmonic 10.0 5.888200064535848
bond_coeff 914 harmonic 10.0 5.702990443618167
bond_coeff 915 harmonic 10.0 6.331240004927938
bond_coeff 916 harmonic 10.0 4.718357765155163
bond_coeff 917 harmonic 10.0 6.5800759874031876
bond_coeff 918 harmonic 10.0 7.109880449065231
bond_coeff 919 harmonic 10.0 3.827296696102879
bond_coeff 920 harmonic 10.0 7.210728118574437
bond_coeff 921 harmonic 10.0 5.462655032124937
bond_coeff 922 harmonic 10.0 5.860170645979527
bond_coeff 923 harmonic 10.0 6.796660944905216
bond_coeff 924 harmonic 10.0 6.1562651015043235
bond_coeff 925 harmonic 10.0 3.8009209410352214
bond_coeff 926 harmonic 10.0 6.712957619410395
bond_coeff 927 harmonic 10.0 6.548831956921768
bond_coeff 928 harmonic 10.0 4.515107972130901
bond_coeff 929 harmonic 10.0 6.273125217943603
bond_coeff 930 harmonic 10.0 3.839348903134503
bond_coeff 931 harmonic 10.0 6.310705190388785
bond_coeff 932 harmonic 10.0 7.117892946652123
bond_coeff 933 harmonic 10.0 5.39957405727527
bond_coeff 934 harmonic 10.0 4.691065976939573
bond_coeff 935 harmonic 10.0 6.052652311177322
bond_coeff 936 harmonic 10.0 3.830221925685247
bond_coeff 937 harmonic 10.0 5.559091652419477
bond_coeff 938 harmonic 10.0 5.837927714523369
bond_coeff 939 harmonic 10.0 6.983480507597913
bond_coeff 940 harmonic 10.0 6.091444820401812
bond_coeff 941 harmonic 10.0 4.794455130669182
bond_coeff 942 harmonic 10.0 7.105842666425985
bond_coeff 943 harmonic 10.0 3.8320360123568697
bond_coeff 944 harmonic 10.0 5.429861876696308
bond_coeff 945 harmonic 10.0 6.0935539712059565
bond_coeff 946 harmonic 10.0 7.247109768728493
bond_coeff 947 harmonic 10.0 7.408846063996745
bond_coeff 948 harmonic 10.0 3.801013022866403
bond_coeff 949 harmonic 10.0 5.851504080148963
bond_coeff 950 harmonic 10.0 5.495261595229118
bond_coeff 951 harmonic 10.0 6.488235507439603
bond_coeff 952 harmonic 10.0 6.518979981561536
bond_coeff 953 harmonic 10.0 5.243329095145565
bond_coeff 954 harmonic 10.0 6.669227841362156
bond_coeff 955 harmonic 10.0 3.906942538609956
bond_coeff 956 harmonic 10.0 5.428388342777248
bond_coeff 957 harmonic 10.0 5.341057947635457
bond_coeff 958 harmonic 10.0 6.040802926763954
bond_coeff 959 harmonic 10.0 7.134991240359032
bond_coeff 960 harmonic 10.0 5.074189590466646
bond_coeff 961 harmonic 10.0 3.797525510118388
bond_coeff 962 harmonic 10.0 6.458389892225456
bond_coeff 963 harmonic 10.0 3.8226953841497657
bond_coeff 964 harmonic 10.0 5.691686920412953
bond_coeff 965 harmonic 10.0 4.953877269371943
bond_coeff 966 harmonic 10.0 5.881725937171852
bond_coeff 967 harmonic 10.0 3.842330022265127
bond_coeff 968 harmonic 10.0 5.297952434667557
bond_coeff 969 harmonic 10.0 5.2636584235681525
bond_coeff 970 harmonic 10.0 6.196490942460907
bond_coeff 971 harmonic 10.0 7.3558344190173335
bond_coeff 972 harmonic 10.0 6.482676916212938
bond_coeff 973 harmonic 10.0 6.344359699764827
bond_coeff 974 harmonic 10.0 3.8244476725404297
bond_coeff 975 harmonic 10.0 5.801465332138083
bond_coeff 976 harmonic 10.0 5.327457179555749
bond_coeff 977 harmonic 10.0 6.581838648888309
bond_coeff 978 harmonic 10.0 6.316304299192677
bond_coeff 979 harmonic 10.0 7.162743887645287
bond_coeff 980 harmonic 10.0 4.365592743259508
bond_coeff 981 harmonic 10.0 6.775204793952735
bond_coeff 982 harmonic 10.0 6.166360352752675
bond_coeff 983 harmonic 10.0 6.093389861152825
bond_coeff 984 harmonic 10.0 3.8287595902589824
bond_coeff 985 harmonic 10.0 5.372355163240796
bond_coeff 986 harmonic 10.0 5.120019531212742
bond_coeff 987 harmonic 10.0 6.442639210758278
bond_coeff 988 harmonic 10.0 6.670269859608366
bond_coeff 989 harmonic 10.0 6.893475175845629
bond_coeff 990 harmonic 10.0 3.854944876389282
bond_coeff 991 harmonic 10.0 5.244292135264784
bond_coeff 992 harmonic 10.0 5.061284421962473
bond_coeff 993 harmonic 10.0 6.174674080467724
bond_coeff 994 harmonic 10.0 3.8243692290363334
bond_coeff 995 harmonic 10.0 5.714595348753918
bond_coeff 996 harmonic 10.0 5.360317154795966
bond_coeff 997 harmonic 10.0 6.154218065684695
bond_coeff 998 harmonic 10.0 6.150682888915667
bond_coeff 999 harmonic 10.0 5.1666430106985475
bond_coeff 1000 harmonic 10.0 6.273324477499965
bond_coeff 1001 harmonic 10.0 3.7906463828745736
bond_coeff 1002 harmonic 10.0 5.367643803383399
bond_coeff 1003 harmonic 10.0 4.89176859632588
bond_coeff 1004 harmonic 10.0 6.13128045354313
bond_coeff 1005 harmonic 10.0 5.729650949228928
bond_coeff 1006 harmonic 10.0 6.692391201954637
bond_coeff 1007 harmonic 10.0 6.1272016451231535
bond_coeff 1008 harmonic 10.0 3.820235594829207
bond_coeff 1009 harmonic 10.0 5.441341746297521
bond_coeff 1010 harmonic 10.0 5.154784185589157
bond_coeff 1011 harmonic 10.0 6.05987623635995
bond_coeff 1012 harmonic 10.0 5.915141587485457
bond_coeff 1013 harmonic 10.0 7.4329940131820305
bond_coeff 1014 harmonic 10.0 3.8551523964689336
bond_coeff 1015 harmonic 10.0 5.435568047591723
bond_coeff 1016 harmonic 10.0 4.8585080014341875
bond_coeff 1017 harmonic 10.0 6.1380289996056545
bond_coeff 1018 harmonic 10.0 7.175270029761935
bond_coeff 1019 harmonic 10.0 3.8095931541307664
bond_coeff 1020 harmonic 10.0 5.401416480887222
bond_coeff 1021 harmonic 10.0 5.134958617165288
bond_coeff 1022 harmonic 10.0 6.105718630922976
bond_coeff 1023 harmonic 10.0 7.0248914582361985
bond_coeff 1024 harmonic 10.0 7.173485902962357
bond_coeff 1025 harmonic 10.0 3.8022230339631613
bond_coeff 1026 harmonic 10.0 5.32627449536728
bond_coeff 1027 harmonic 10.0 4.836320915737488
bond_coeff 1028 harmonic 10.0 6.269681012619394
bond_coeff 1029 harmonic 10.0 3.7727576121452553
bond_coeff 1030 harmonic 10.0 5.490655698548211
bond_coeff 1031 harmonic 10.0 5.580322571321495
bond_coeff 1032 harmonic 10.0 6.066374535090957
bond_coeff 1033 harmonic 10.0 7.026820048926836
bond_coeff 1034 harmonic 10.0 7.351231189399504
bond_coeff 1035 harmonic 10.0 7.303122619811345
bond_coeff 1036 harmonic 10.0 7.1607401852043235
bond_coeff 1037 harmonic 10.0 3.83854138964269
bond_coeff 1038 harmonic 10.0 5.580474890186331
bond_coeff 1039 harmonic 10.0 5.0114069880623395
bond_coeff 1040 harmonic 10.0 5.954023849465174
bond_coeff 1041 harmonic 10.0 6.465732750431303
bond_coeff 1042 harmonic 10.0 6.934803530021589
bond_coeff 1043 harmonic 10.0 6.489044613808724
bond_coeff 1044 harmonic 10.0 3.774559576957297
bond_coeff 1045 harmonic 10.0 5.545286286568088
bond_coeff 1046 harmonic 10.0 5.710131347000705
bond_coeff 1047 harmonic 10.0 6.864954479091627
bond_coeff 1048 harmonic 10.0 3.780859690599487
bond_coeff 1049 harmonic 10.0 5.760668364000831
bond_coeff 1050 harmonic 10.0 5.575096411722392
bond_coeff 1051 harmonic 10.0 6.307883955812757
bond_coeff 1052 harmonic 10.0 7.349673462134226
bond_coeff 1053 harmonic 10.0 5.79618840273502
bond_coeff 1054 harmonic 10.0 6.777470029443137
bond_coeff 1055 harmonic 10.0 3.8289162957683027
bond_coeff 1056 harmonic 10.0 5.341554080976811
bond_coeff 1057 harmonic 10.0 4.815983803959465
bond_coeff 1058 harmonic 10.0 6.093964227003639
bond_coeff 1059 harmonic 10.0 7.329645284732411
bond_coeff 1060 harmonic 10.0 6.7623442680774595
bond_coeff 1061 harmonic 10.0 7.358675152498582
bond_coeff 1062 harmonic 10.0 3.811613831436767
bond_coeff 1063 harmonic 10.0 5.466946131068059
bond_coeff 1064 harmonic 10.0 5.333947881260205
bond_coeff 1065 harmonic 10.0 6.24253954733167
bond_coeff 1066 harmonic 10.0 6.052181424907892
bond_coeff 1067 harmonic 10.0 6.806776035686792
bond_coeff 1068 harmonic 10.0 3.853037762597206
bond_coeff 1069 harmonic 10.0 5.624891110057175
bond_coeff 1070 harmonic 10.0 5.210230321204622
bond_coeff 1071 harmonic 10.0 6.180817098086614
bond_coeff 1072 harmonic 10.0 4.964483860382659
bond_coeff 1073 harmonic 10.0 7.463303558076654
bond_coeff 1074 harmonic 10.0 3.863948757424185
bond_coeff 1075 harmonic 10.0 5.490118395808957
bond_coeff 1076 harmonic 10.0 5.058003558717606
bond_coeff 1077 harmonic 10.0 6.292924598308811
bond_coeff 1078 harmonic 10.0 6.775699225910196
bond_coeff 1079 harmonic 10.0 4.949636350278676
bond_coeff 1080 harmonic 10.0 5.349869157278528
bond_coeff 1081 harmonic 10.0 6.927257754696326
bond_coeff 1082 harmonic 10.0 4.952029886824215
bond_coeff 1083 harmonic 10.0 3.7901055394276266
bond_coeff 1084 harmonic 10.0 5.272086873335826
bond_coeff 1085 harmonic 10.0 5.000359987040933
bond_coeff 1086 harmonic 10.0 6.114621819867518
bond_coeff 1087 harmonic 10.0 6.498692176122822
bond_coeff 1088 harmonic 10.0 7.395092967637381
bond_coeff 1089 harmonic 10.0 6.606648166808951
bond_coeff 1090 harmonic 10.0 6.357090529479657
bond_coeff 1091 harmonic 10.0 3.752599099291048
bond_coeff 1092 harmonic 10.0 5.475664343255539
bond_coeff 1093 harmonic 10.0 5.163341941030065
bond_coeff 1094 harmonic 10.0 6.230545722486929
bond_coeff 1095 harmonic 10.0 3.839700509154347
bond_coeff 1096 harmonic 10.0 5.507095423179098
bond_coeff 1097 harmonic 10.0 5.087366705870546
bond_coeff 1098 harmonic 10.0 6.054989677943322
bond_coeff 1099 harmonic 10.0 5.980844421985921
bond_coeff 1100 harmonic 10.0 7.286542389913063
bond_coeff 1101 harmonic 10.0 7.402067278807986
bond_coeff 1102 harmonic 10.0 3.8017627490415506
bond_coeff 1103 harmonic 10.0 5.2957152491424555
bond_coeff 1104 harmonic 10.0 4.753756409409296
bond_coeff 1105 harmonic 10.0 6.000841607641362
bond_coeff 1106 harmonic 10.0 4.768322556203594
bond_coeff 1107 harmonic 10.0 6.426779909099109
bond_coeff 1108 harmonic 10.0 7.2762696486592615
bond_coeff 1109 harmonic 10.0 6.375154900078909
bond_coeff 1110 harmonic 10.0 6.1340198891102515
bond_coeff 1111 harmonic 10.0 3.8404687213932673
bond_coeff 1112 harmonic 10.0 5.442848518928306
bond_coeff 1113 harmonic 10.0 4.863630331347138
bond_coeff 1114 harmonic 10.0 5.434050054977409
bond_coeff 1115 harmonic 10.0 6.670599673192803
bond_coeff 1116 harmonic 10.0 3.829595278877384
bond_coeff 1117 harmonic 10.0 5.170038684574803
bond_coeff 1118 harmonic 10.0 7.358865401677089
bond_coeff 1119 harmonic 10.0 3.8810694402445427
bond_coeff 1120 harmonic 10.0 5.430755011966593
bond_coeff 1121 harmonic 10.0 3.8502986897122637
bond_coeff 1122 harmonic 10.0 6.967223263251993
bond_coeff 1123 harmonic 10.0 3.7971831665064384
bond_coeff 1124 harmonic 10.0 6.034285376082227
bond_coeff 1125 harmonic 10.0 3.910473117156031
bond_coeff 1126 harmonic 10.0 6.7263734656945715
bond_coeff 1127 harmonic 10.0 5.375323246094137
bond_coeff 1128 harmonic 10.0 6.483255355143742
bond_coeff 1129 harmonic 10.0 3.815298153486823
bond_coeff 1130 harmonic 10.0 6.222515568481931
bond_coeff 1131 harmonic 10.0 5.91037223870037
bond_coeff 1132 harmonic 10.0 4.674334177185026
bond_coeff 1133 harmonic 10.0 5.011436919686808
bond_coeff 1134 harmonic 10.0 6.249287959439867
bond_coeff 1135 harmonic 10.0 3.7804761604856134
bond_coeff 1136 harmonic 10.0 6.865121994546056
bond_coeff 1137 harmonic 10.0 6.076561527706272
bond_coeff 1138 harmonic 10.0 7.1196769589637965
bond_coeff 1139 harmonic 10.0 6.052511875246501
bond_coeff 1140 harmonic 10.0 4.453582827342488
bond_coeff 1141 harmonic 10.0 5.923453384639739
bond_coeff 1142 harmonic 10.0 6.745265005913403
bond_coeff 1143 harmonic 10.0 3.87653195524041
bond_coeff 1144 harmonic 10.0 5.425937706977485
bond_coeff 1145 harmonic 10.0 5.633063109889683
bond_coeff 1146 harmonic 10.0 6.801073444685037
bond_coeff 1147 harmonic 10.0 6.558841361094197
bond_coeff 1148 harmonic 10.0 5.666612744841487
bond_coeff 1149 harmonic 10.0 7.031344110481284
bond_coeff 1150 harmonic 10.0 5.2826319197914895
bond_coeff 1151 harmonic 10.0 3.8959851129079075
bond_coeff 1152 harmonic 10.0 5.409149655907096
bond_coeff 1153 harmonic 10.0 4.818142795725325
bond_coeff 1154 harmonic 10.0 6.148276181174691
bond_coeff 1155 harmonic 10.0 7.186995199664457
bond_coeff 1156 harmonic 10.0 7.020049857372817
bond_coeff 1157 harmonic 10.0 6.0516857155672055
bond_coeff 1158 harmonic 10.0 5.234586898696009
bond_coeff 1159 harmonic 10.0 6.935308212329145
bond_coeff 1160 harmonic 10.0 5.02900586597391
bond_coeff 1161 harmonic 10.0 7.16118007035154
bond_coeff 1162 harmonic 10.0 3.8925826901942617
bond_coeff 1163 harmonic 10.0 5.409158899496294
bond_coeff 1164 harmonic 10.0 5.06507650485164
bond_coeff 1165 harmonic 10.0 6.733869615607371
bond_coeff 1166 harmonic 10.0 6.793953193833477
bond_coeff 1167 harmonic 10.0 4.647042069962351
bond_coeff 1168 harmonic 10.0 7.280199173099594
bond_coeff 1169 harmonic 10.0 7.429461622486509
bond_coeff 1170 harmonic 10.0 3.785630726840625
bond_coeff 1171 harmonic 10.0 5.365761828482521
bond_coeff 1172 harmonic 10.0 5.277120426899526
bond_coeff 1173 harmonic 10.0 6.205763450213046
bond_coeff 1174 harmonic 10.0 3.8300652735952285
bond_coeff 1175 harmonic 10.0 5.378680135497951
bond_coeff 1176 harmonic 10.0 4.87492564045855
bond_coeff 1177 harmonic 10.0 6.46150137351995
bond_coeff 1178 harmonic 10.0 7.1344095761317154
bond_coeff 1179 harmonic 10.0 7.4791309655601
bond_coeff 1180 harmonic 10.0 3.8301174916704688
bond_coeff 1181 harmonic 10.0 5.575311650481975
bond_coeff 1182 harmonic 10.0 5.700280694843013
bond_coeff 1183 harmonic 10.0 7.068182227418857
bond_coeff 1184 harmonic 10.0 6.695864395281624
bond_coeff 1185 harmonic 10.0 5.067050424063298
bond_coeff 1186 harmonic 10.0 7.3748559307961985
bond_coeff 1187 harmonic 10.0 7.195178941485739
bond_coeff 1188 harmonic 10.0 3.811600713611019
bond_coeff 1189 harmonic 10.0 5.506051216616132
bond_coeff 1190 harmonic 10.0 5.350233639758156
bond_coeff 1191 harmonic 10.0 5.9184541900736045
bond_coeff 1192 harmonic 10.0 7.008979954315734
bond_coeff 1193 harmonic 10.0 3.8923643200502163
bond_coeff 1194 harmonic 10.0 5.499827270014932
bond_coeff 1195 harmonic 10.0 5.426214149846994
bond_coeff 1196 harmonic 10.0 7.110478183638564
bond_coeff 1197 harmonic 10.0 3.804155622473927
bond_coeff 1198 harmonic 10.0 6.096269351004746
bond_coeff 1199 harmonic 10.0 6.664758060124919
bond_coeff 1200 harmonic 10.0 5.109315022583743
bond_coeff 1201 harmonic 10.0 5.40590417969095
bond_coeff 1202 harmonic 10.0 5.798025525987277
bond_coeff 1203 harmonic 10.0 6.075541128162981
bond_coeff 1204 harmonic 10.0 3.817394399325276
bond_coeff 1205 harmonic 10.0 5.386445952573935
bond_coeff 1206 harmonic 10.0 6.620981800307275
bond_coeff 1207 harmonic 10.0 6.283335101679685
bond_coeff 1208 harmonic 10.0 4.635364063371956
bond_coeff 1209 harmonic 10.0 5.81994845337998
bond_coeff 1210 harmonic 10.0 3.787413365345795
bond_coeff 1211 harmonic 10.0 6.510752644664053
bond_coeff 1212 harmonic 10.0 7.25745823274237
bond_coeff 1213 harmonic 10.0 3.791384971220922
bond_coeff 1214 harmonic 10.0 5.554988748863496
bond_coeff 1215 harmonic 10.0 5.468281265626348
bond_coeff 1216 harmonic 10.0 6.0614354735491505
bond_coeff 1217 harmonic 10.0 3.8531675281513578
bond_coeff 1218 harmonic 10.0 5.749165156785804
bond_coeff 1219 harmonic 10.0 5.000879922573624
bond_coeff 1220 harmonic 10.0 6.391635158549027
bond_coeff 1221 harmonic 10.0 3.8377858199748403
bond_coeff 1222 harmonic 10.0 5.091846423449938
bond_coeff 1223 harmonic 10.0 4.960735832515173
bond_coeff 1224 harmonic 10.0 6.75979289623579
bond_coeff 1225 harmonic 10.0 6.690119580396168
bond_coeff 1226 harmonic 10.0 6.908545433012658
bond_coeff 1227 harmonic 10.0 7.226880378143807
bond_coeff 1228 harmonic 10.0 3.7364823029153955
bond_coeff 1229 harmonic 10.0 5.37456044714356
bond_coeff 1230 harmonic 10.0 5.211276235242182
bond_coeff 1231 harmonic 10.0 5.830951894845293
bond_coeff 1232 harmonic 10.0 7.152433152431403
bond_coeff 1233 harmonic 10.0 3.828707353663891
bond_coeff 1234 harmonic 10.0 5.360942081388316
bond_coeff 1235 harmonic 10.0 5.188959433258289
bond_coeff 1236 harmonic 10.0 4.408128854740987
bond_coeff 1237 harmonic 10.0 3.890771131793812
bond_coeff 1238 harmonic 10.0 6.089819373347636
bond_coeff 1239 harmonic 10.0 6.243476595615626
bond_coeff 1240 harmonic 10.0 3.7827767578856775
bond_coeff 1241 harmonic 10.0 6.2547661826802265
bond_coeff 1242 harmonic 10.0 3.8043790557724484
bond_coeff 1243 harmonic 10.0 5.615594358569715
bond_coeff 1244 harmonic 10.0 4.887013402887281
bond_coeff 1245 harmonic 10.0 3.8507142194662975
bond_coeff 1246 harmonic 10.0 5.836968391211312
bond_coeff 1247 harmonic 10.0 3.8307440530528862
bond_coeff 1248 harmonic 10.0 5.918851239894455
bond_coeff 1249 harmonic 10.0 3.818926550746969
bond_coeff 1250 harmonic 10.0 6.366584641705492
bond_coeff 1251 harmonic 10.0 6.6287027388471635
bond_coeff 1252 harmonic 10.0 5.54981981689495
bond_coeff 1253 harmonic 10.0 6.470757297256624
bond_coeff 1254 harmonic 10.0 3.813423658603903
bond_coeff 1255 harmonic 10.0 6.38692414233956
bond_coeff 1256 harmonic 10.0 6.812811460770066
bond_coeff 1257 harmonic 10.0 6.623820649745886
bond_coeff 1258 harmonic 10.0 7.0896332768345784
bond_coeff 1259 harmonic 10.0 6.038170252651055
bond_coeff 1260 harmonic 10.0 4.85972221428344
bond_coeff 1261 harmonic 10.0 6.259536724071525
bond_coeff 1262 harmonic 10.0 3.786423114233271
bond_coeff 1263 harmonic 10.0 6.2086230357463235
bond_coeff 1264 harmonic 10.0 5.046206495972998
bond_coeff 1265 harmonic 10.0 7.276173444881593
bond_coeff 1266 harmonic 10.0 6.975141575624105
bond_coeff 1267 harmonic 10.0 6.295974904651373
bond_coeff 1268 harmonic 10.0 5.275566320311019
bond_coeff 1269 harmonic 10.0 6.892394359001799
bond_coeff 1270 harmonic 10.0 3.8444505459167924
bond_coeff 1271 harmonic 10.0 5.409121925044763
bond_coeff 1272 harmonic 10.0 7.300041095774758
bond_coeff 1273 harmonic 10.0 6.668470589273068
bond_coeff 1274 harmonic 10.0 7.281600098879375
bond_coeff 1275 harmonic 10.0 6.1027698629393
bond_coeff 1276 harmonic 10.0 5.708423600259552
bond_coeff 1277 harmonic 10.0 3.83908843346958
bond_coeff 1278 harmonic 10.0 5.61188916497822
bond_coeff 1279 harmonic 10.0 5.48549906571862
bond_coeff 1280 harmonic 10.0 6.743255890146826
bond_coeff 1281 harmonic 10.0 3.8010130228664103
bond_coeff 1282 harmonic 10.0 6.263321802366531
bond_coeff 1283 harmonic 10.0 6.0473878658475195
bond_coeff 1284 harmonic 10.0 3.749146569554171
bond_coeff 1285 harmonic 10.0 7.013080635498206
bond_coeff 1286 harmonic 10.0 7.264888161561758
bond_coeff 1287 harmonic 10.0 7.189088954798109
bond_coeff 1288 harmonic 10.0 4.814208138416947
bond_coeff 1289 harmonic 10.0 7.476376127509909
bond_coeff 1290 harmonic 10.0 7.329508851212333
bond_coeff 1291 harmonic 10.0 3.845594882459675
bond_coeff 1292 harmonic 10.0 6.762469962964722
bond_coeff 1293 harmonic 10.0 6.053899569698873
bond_coeff 1294 harmonic 10.0 3.86680746870078
bond_coeff 1295 harmonic 10.0 6.285745779141887
bond_coeff 1296 harmonic 10.0 6.119289174405829
bond_coeff 1297 harmonic 10.0 7.2213433653303145
bond_coeff 1298 harmonic 10.0 3.8327535793473673
bond_coeff 1299 harmonic 10.0 6.98920596348398
bond_coeff 1300 harmonic 10.0 6.324665999086412
bond_coeff 1301 harmonic 10.0 5.127660285159299
bond_coeff 1302 harmonic 10.0 6.415870946332992
bond_coeff 1303 harmonic 10.0 3.8029725215941297
bond_coeff 1304 harmonic 10.0 6.804182537233977
bond_coeff 1305 harmonic 10.0 6.983967353875608
bond_coeff 1306 harmonic 10.0 3.8352183770940367
bond_coeff 1307 harmonic 10.0 6.384810098977089
bond_coeff 1308 harmonic 10.0 5.803774633805158
bond_coeff 1309 harmonic 10.0 3.8671048602281246
bond_coeff 1310 harmonic 10.0 3.837890045324384
bond_coeff 1311 harmonic 10.0 7.15380318432091
bond_coeff 1312 harmonic 10.0 3.8307571053252576
bond_coeff 1313 harmonic 10.0 6.035072493350836
bond_coeff 1314 harmonic 10.0 3.7426995604777025
bond_coeff 1315 harmonic 10.0 6.370627912537348
bond_coeff 1316 harmonic 10.0 3.8207983458957844
bond_coeff 1317 harmonic 10.0 6.838398935423404
bond_coeff 1318 harmonic 10.0 3.8085955416662522
bond_coeff 1319 harmonic 10.0 6.831207799503682
bond_coeff 1320 harmonic 10.0 3.7824066412801067
bond_coeff 1321 harmonic 10.0 7.009522094979086
bond_coeff 1322 harmonic 10.0 3.84114566242939
bond_coeff 1323 harmonic 10.0 7.156717124492232
bond_coeff 1324 harmonic 10.0 3.746811978202284
bond_coeff 1325 harmonic 10.0 5.258754605417533
bond_coeff 1326 harmonic 10.0 7.412024015071735
bond_coeff 1327 harmonic 10.0 6.376292025934815
bond_coeff 1328 harmonic 10.0 7.002235357369813
bond_coeff 1329 harmonic 10.0 3.858095385031331
bond_coeff 1330 harmonic 10.0 5.53811339717778
bond_coeff 1331 harmonic 10.0 5.455428489128963
bond_coeff 1332 harmonic 10.0 6.046999255829289
bond_coeff 1333 harmonic 10.0 5.574199494097791
bond_coeff 1334 harmonic 10.0 3.8221198306698816
bond_coeff 1335 harmonic 10.0 5.437536206775999
bond_coeff 1336 harmonic 10.0 4.697180005066864
bond_coeff 1337 harmonic 10.0 6.211932066595707
bond_coeff 1338 harmonic 10.0 5.4572337314797075
bond_coeff 1339 harmonic 10.0 7.2580162579040834
bond_coeff 1340 harmonic 10.0 6.392386095973868
bond_coeff 1341 harmonic 10.0 3.834083984473989
bond_coeff 1342 harmonic 10.0 5.457481103952626
bond_coeff 1343 harmonic 10.0 5.466525404678927
bond_coeff 1344 harmonic 10.0 6.062054107313789
bond_coeff 1345 harmonic 10.0 3.810236213150052
bond_coeff 1346 harmonic 10.0 5.3427801751522574
bond_coeff 1347 harmonic 10.0 4.528896112740941
bond_coeff 1348 harmonic 10.0 6.029436126206177
bond_coeff 1349 harmonic 10.0 3.829751950192061
bond_coeff 1350 harmonic 10.0 5.482754782041596
bond_coeff 1351 harmonic 10.0 5.5011816912369
bond_coeff 1352 harmonic 10.0 6.238124718214598
bond_coeff 1353 harmonic 10.0 6.643410268830309
bond_coeff 1354 harmonic 10.0 7.130427757154549
bond_coeff 1355 harmonic 10.0 3.832518754031084
bond_coeff 1356 harmonic 10.0 5.414185072566321
bond_coeff 1357 harmonic 10.0 4.764283786677693
bond_coeff 1358 harmonic 10.0 6.012004657350155
bond_coeff 1359 harmonic 10.0 7.081560562474917
bond_coeff 1360 harmonic 10.0 3.8646086477158477
bond_coeff 1361 harmonic 10.0 5.534094325180953
bond_coeff 1362 harmonic 10.0 5.280170451794149
bond_coeff 1363 harmonic 10.0 6.943090090154383
bond_coeff 1364 harmonic 10.0 3.7982364328724922
bond_coeff 1365 harmonic 10.0 5.340730287142397
bond_coeff 1366 harmonic 10.0 5.136428720424336
bond_coeff 1367 harmonic 10.0 6.301158623618345
bond_coeff 1368 harmonic 10.0 3.8820870675449908
bond_coeff 1369 harmonic 10.0 5.210095968405949
bond_coeff 1370 harmonic 10.0 4.9168485842051135
bond_coeff 1371 harmonic 10.0 5.792521040099897
bond_coeff 1372 harmonic 10.0 6.681601604405945
bond_coeff 1373 harmonic 10.0 7.465694877236835
bond_coeff 1374 harmonic 10.0 3.8445415851568043
bond_coeff 1375 harmonic 10.0 5.804877259684307
bond_coeff 1376 harmonic 10.0 5.884360627969709
bond_coeff 1377 harmonic 10.0 4.421153695586709
bond_coeff 1378 harmonic 10.0 3.807269362679769
bond_coeff 1379 harmonic 10.0 5.914169426047921
bond_coeff 1380 harmonic 10.0 5.854886847753767
bond_coeff 1381 harmonic 10.0 3.8064550437381945
bond_coeff 1382 harmonic 10.0 6.23972755815509
bond_coeff 1383 harmonic 10.0 3.8537384446794145
bond_coeff 1384 harmonic 10.0 5.357247427550826
bond_coeff 1385 harmonic 10.0 5.540740022776755
bond_coeff 1386 harmonic 10.0 3.822067503328519
bond_coeff 1387 harmonic 10.0 5.652371183848421
bond_coeff 1388 harmonic 10.0 3.8238593070352302
bond_coeff 1389 harmonic 10.0 6.909992764106197
bond_coeff 1390 harmonic 10.0 3.862369738903828
bond_coeff 1391 harmonic 10.0 7.004869734691716
bond_coeff 1392 harmonic 10.0 3.8249836600958163
bond_coeff 1393 harmonic 10.0 7.017193171062063
bond_coeff 1394 harmonic 10.0 3.8225253432776682
bond_coeff 1395 harmonic 10.0 6.693735877669513
bond_coeff 1396 harmonic 10.0 6.320617058484084
bond_coeff 1397 harmonic 10.0 6.626673373571391
bond_coeff 1398 harmonic 10.0 3.845490865936358
bond_coeff 1399 harmonic 10.0 5.339634818974039
bond_coeff 1400 harmonic 10.0 5.092946102208422
bond_coeff 1401 harmonic 10.0 6.194392625592922
bond_coeff 1402 harmonic 10.0 3.757565701355068
bond_coeff 1403 harmonic 10.0 5.3550443508901004
bond_coeff 1404 harmonic 10.0 4.888527385624422
bond_coeff 1405 harmonic 10.0 6.110932825682194
bond_coeff 1406 harmonic 10.0 3.8107741995557802
bond_coeff 1407 harmonic 10.0 5.446374941187951
bond_coeff 1408 harmonic 10.0 4.949161545150876
bond_coeff 1409 harmonic 10.0 6.539801220220706
bond_coeff 1410 harmonic 10.0 7.0969359585669185
bond_coeff 1411 harmonic 10.0 3.8284984001563944
bond_coeff 1412 harmonic 10.0 5.102842345203313
bond_coeff 1413 harmonic 10.0 4.964937059016975
bond_coeff 1414 harmonic 10.0 6.324468357103239
bond_coeff 1415 harmonic 10.0 3.795602718936743
bond_coeff 1416 harmonic 10.0 5.442334058104125
bond_coeff 1417 harmonic 10.0 5.080265741080884
bond_coeff 1418 harmonic 10.0 5.952092069180383
bond_coeff 1419 harmonic 10.0 3.793784390288929
bond_coeff 1420 harmonic 10.0 5.456198310178967
bond_coeff 1421 harmonic 10.0 5.025395506823298
bond_coeff 1422 harmonic 10.0 6.249815997291421
bond_coeff 1423 harmonic 10.0 4.8726276278821
bond_coeff 1424 harmonic 10.0 7.0343798589499
bond_coeff 1425 harmonic 10.0 3.823623935483188
bond_coeff 1426 harmonic 10.0 5.455657613890359
bond_coeff 1427 harmonic 10.0 5.146513382864162
bond_coeff 1428 harmonic 10.0 6.176447198835257
bond_coeff 1429 harmonic 10.0 5.25845985056461
bond_coeff 1430 harmonic 10.0 4.230945520802644
bond_coeff 1431 harmonic 10.0 3.7785843910120556
bond_coeff 1432 harmonic 10.0 5.286861072507959
bond_coeff 1433 harmonic 10.0 4.71815641961985
bond_coeff 1434 harmonic 10.0 6.234789491233843
bond_coeff 1435 harmonic 10.0 3.8275840944386776
bond_coeff 1436 harmonic 10.0 5.402989913001882
bond_coeff 1437 harmonic 10.0 5.513719252918134
bond_coeff 1438 harmonic 10.0 6.321977538713656
bond_coeff 1439 harmonic 10.0 5.947823131196822
bond_coeff 1440 harmonic 10.0 3.8635087679465863
bond_coeff 1441 harmonic 10.0 5.755510403083301
bond_coeff 1442 harmonic 10.0 5.411524738925253
bond_coeff 1443 harmonic 10.0 5.876393451769551
bond_coeff 1444 harmonic 10.0 5.205151294631116
bond_coeff 1445 harmonic 10.0 5.81173812211113
bond_coeff 1446 harmonic 10.0 6.025595406264827
bond_coeff 1447 harmonic 10.0 4.854461865129836
bond_coeff 1448 harmonic 10.0 3.8507142194663055
bond_coeff 1449 harmonic 10.0 5.698113722978869
bond_coeff 1450 harmonic 10.0 5.19186864240612
bond_coeff 1451 harmonic 10.0 6.180509687719938
bond_coeff 1452 harmonic 10.0 6.7220458195403605
bond_coeff 1453 harmonic 10.0 3.856436178649922
bond_coeff 1454 harmonic 10.0 5.457059647832331
bond_coeff 1455 harmonic 10.0 5.231472068165898
bond_coeff 1456 harmonic 10.0 6.040703601402734
bond_coeff 1457 harmonic 10.0 3.864116975455076
bond_coeff 1458 harmonic 10.0 5.594050410927684
bond_coeff 1459 harmonic 10.0 4.901509971427174
bond_coeff 1460 harmonic 10.0 6.73597060563658
bond_coeff 1461 harmonic 10.0 5.7742358801836104
bond_coeff 1462 harmonic 10.0 3.8426032842332365
bond_coeff 1463 harmonic 10.0 5.33252285508464
bond_coeff 1464 harmonic 10.0 5.575742103074712
bond_coeff 1465 harmonic 10.0 6.662349435446945
bond_coeff 1466 harmonic 10.0 3.853232409289646
bond_coeff 1467 harmonic 10.0 5.4739108505711
bond_coeff 1468 harmonic 10.0 4.948504824692013
bond_coeff 1469 harmonic 10.0 6.403670822270611
bond_coeff 1470 harmonic 10.0 3.8545168309400304
bond_coeff 1471 harmonic 10.0 5.528770206836255
bond_coeff 1472 harmonic 10.0 5.452430650636469
bond_coeff 1473 harmonic 10.0 5.866762309826429
bond_coeff 1474 harmonic 10.0 3.822956970723067
bond_coeff 1475 harmonic 10.0 5.38573114813578
bond_coeff 1476 harmonic 10.0 4.869476357884894
bond_coeff 1477 harmonic 10.0 5.374020841046296
bond_coeff 1478 harmonic 10.0 3.8425382236224985
bond_coeff 1479 harmonic 10.0 5.834278018744042
bond_coeff 1480 harmonic 10.0 5.767330404962065
bond_coeff 1481 harmonic 10.0 6.380979548627294
bond_coeff 1482 harmonic 10.0 7.422438952258202
bond_coeff 1483 harmonic 10.0 3.8216619421398255
bond_coeff 1484 harmonic 10.0 5.715715178348198
bond_coeff 1485 harmonic 10.0 5.248180637135123
bond_coeff 1486 harmonic 10.0 6.308993580595879
bond_coeff 1487 harmonic 10.0 6.717521864497346
bond_coeff 1488 harmonic 10.0 5.3291931847137946
bond_coeff 1489 harmonic 10.0 6.53095705084639
bond_coeff 1490 harmonic 10.0 7.063009273673651
bond_coeff 1491 harmonic 10.0 3.817132431551199
bond_coeff 1492 harmonic 10.0 5.31169464483794
bond_coeff 1493 harmonic 10.0 4.9041716935686495
bond_coeff 1494 harmonic 10.0 6.423713879057829
bond_coeff 1495 harmonic 10.0 7.21179589284111
bond_coeff 1496 harmonic 10.0 3.827584094438692
bond_coeff 1497 harmonic 10.0 5.272779153349778
bond_coeff 1498 harmonic 10.0 5.242098816313946
bond_coeff 1499 harmonic 10.0 6.482082998542988
bond_coeff 1500 harmonic 10.0 3.7678906565875927
bond_coeff 1501 harmonic 10.0 5.650380518159822
bond_coeff 1502 harmonic 10.0 5.271489353114543
bond_coeff 1503 harmonic 10.0 6.017790292125513
bond_coeff 1504 harmonic 10.0 5.903024648432355
bond_coeff 1505 harmonic 10.0 3.8411716962406124
bond_coeff 1506 harmonic 10.0 5.3127205836558
bond_coeff 1507 harmonic 10.0 4.711156970426695
bond_coeff 1508 harmonic 10.0 6.025039418958184
bond_coeff 1509 harmonic 10.0 6.575241440433949
bond_coeff 1510 harmonic 10.0 5.078552943506642
bond_coeff 1511 harmonic 10.0 6.106136257896641
bond_coeff 1512 harmonic 10.0 6.309841519404432
bond_coeff 1513 harmonic 10.0 3.8384632341602467
bond_coeff 1514 harmonic 10.0 5.4506696836260335
bond_coeff 1515 harmonic 10.0 5.074100905579222
bond_coeff 1516 harmonic 10.0 6.1484632226272575
bond_coeff 1517 harmonic 10.0 6.567221634755449
bond_coeff 1518 harmonic 10.0 5.715146542303183
bond_coeff 1519 harmonic 10.0 3.8509479352491938
bond_coeff 1520 harmonic 10.0 5.34150727791323
bond_coeff 1521 harmonic 10.0 4.8756332921990815
bond_coeff 1522 harmonic 10.0 5.97066997915646
bond_coeff 1523 harmonic 10.0 7.053658625139159
bond_coeff 1524 harmonic 10.0 3.843709146124353
bond_coeff 1525 harmonic 10.0 5.5391154528498525
bond_coeff 1526 harmonic 10.0 5.3925596890530665
bond_coeff 1527 harmonic 10.0 6.887967769959431
bond_coeff 1528 harmonic 10.0 6.193230174957161
bond_coeff 1529 harmonic 10.0 3.861359864089337
bond_coeff 1530 harmonic 10.0 5.707731598454869
bond_coeff 1531 harmonic 10.0 5.765310052373595
bond_coeff 1532 harmonic 10.0 6.38213130544961
bond_coeff 1533 harmonic 10.0 4.84913394329338
bond_coeff 1534 harmonic 10.0 6.154380553719428
bond_coeff 1535 harmonic 10.0 6.4100390014414
bond_coeff 1536 harmonic 10.0 6.217885492673525
bond_coeff 1537 harmonic 10.0 7.040894829494334
bond_coeff 1538 harmonic 10.0 7.39732384041687
bond_coeff 1539 harmonic 10.0 3.7926639714058625
bond_coeff 1540 harmonic 10.0 5.379191389047236
bond_coeff 1541 harmonic 10.0 4.827846310726965
bond_coeff 1542 harmonic 10.0 5.5443124010106075
bond_coeff 1543 harmonic 10.0 6.644012341951213
bond_coeff 1544 harmonic 10.0 7.272420504893813
bond_coeff 1545 harmonic 10.0 5.671992595199679
bond_coeff 1546 harmonic 10.0 5.895837514721714
bond_coeff 1547 harmonic 10.0 3.818298050178887
bond_coeff 1548 harmonic 10.0 5.586608989360181
bond_coeff 1549 harmonic 10.0 3.8328057607971706
bond_coeff 1550 harmonic 10.0 5.495170606996657
bond_coeff 1551 harmonic 10.0 3.7680366240258234
bond_coeff 1552 harmonic 10.0 6.550175570166039
bond_coeff 1553 harmonic 10.0 3.809737523767221
bond_coeff 1554 harmonic 10.0 5.718994666897316
bond_coeff 1555 harmonic 10.0 3.8271921822662582
bond_coeff 1556 harmonic 10.0 6.983673818270712
bond_coeff 1557 harmonic 10.0 6.807701521071564
bond_coeff 1558 harmonic 10.0 6.353896442341493
bond_coeff 1559 harmonic 10.0 3.7788225679436134
bond_coeff 1560 harmonic 10.0 6.302428103516927
bond_coeff 1561 harmonic 10.0 3.8404296634621593
bond_coeff 1562 harmonic 10.0 7.101865951987553
bond_coeff 1563 harmonic 10.0 6.580904193194126
bond_coeff 1564 harmonic 10.0 3.8684105263014676
bond_coeff 1565 harmonic 10.0 5.391743688270041
bond_coeff 1566 harmonic 10.0 5.914169426047921
bond_coeff 1567 harmonic 10.0 6.965357133701042
bond_coeff 1568 harmonic 10.0 3.8786982352330455
bond_coeff 1569 harmonic 10.0 5.7209264983916785
bond_coeff 1570 harmonic 10.0 5.09109025651677
bond_coeff 1571 harmonic 10.0 6.4322157923999965
bond_coeff 1572 harmonic 10.0 3.8766093432276683
bond_coeff 1573 harmonic 10.0 5.30202791392124
bond_coeff 1574 harmonic 10.0 5.12254819401438
bond_coeff 1575 harmonic 10.0 6.311180555173496
bond_coeff 1576 harmonic 10.0 3.7949703556154484
bond_coeff 1577 harmonic 10.0 5.436119939810011
bond_coeff 1578 harmonic 10.0 4.874638448131308
bond_coeff 1579 harmonic 10.0 6.081167651035445
bond_coeff 1580 harmonic 10.0 3.8924799292995704
bond_coeff 1581 harmonic 10.0 5.3652306567379
bond_coeff 1582 harmonic 10.0 5.125504853182761
bond_coeff 1583 harmonic 10.0 6.476272075816461
bond_coeff 1584 harmonic 10.0 3.8071905652331215
bond_coeff 1585 harmonic 10.0 5.5211049618713135
bond_coeff 1586 harmonic 10.0 5.501172602273075
bond_coeff 1587 harmonic 10.0 6.7602144936384985
bond_coeff 1588 harmonic 10.0 6.344454271251392
bond_coeff 1589 harmonic 10.0 3.782446298363022
bond_coeff 1590 harmonic 10.0 5.6389892711371665
bond_coeff 1591 harmonic 10.0 5.517590053637548
bond_coeff 1592 harmonic 10.0 6.298325174203064
bond_coeff 1593 harmonic 10.0 3.8074794812316535
bond_coeff 1594 harmonic 10.0 5.469853745759567
bond_coeff 1595 harmonic 10.0 4.95045452458661
bond_coeff 1596 harmonic 10.0 5.791597361695639
bond_coeff 1597 harmonic 10.0 3.8969475233828654
bond_coeff 1598 harmonic 10.0 5.468336127196281
bond_coeff 1599 harmonic 10.0 4.958255741689812
bond_coeff 1600 harmonic 10.0 5.697727617217229
bond_coeff 1601 harmonic 10.0 6.485969472638608
bond_coeff 1602 harmonic 10.0 6.8920606497621515
bond_coeff 1603 harmonic 10.0 7.159427351401784
bond_coeff 1604 harmonic 10.0 3.8101049854301876
bond_coeff 1605 harmonic 10.0 5.515877083474559
bond_coeff 1606 harmonic 10.0 5.548990899253648
bond_coeff 1607 harmonic 10.0 7.183146942670728
bond_coeff 1608 harmonic 10.0 5.482937169072804
bond_coeff 1609 harmonic 10.0 3.885305650782182
bond_coeff 1610 harmonic 10.0 6.080444062730941
bond_coeff 1611 harmonic 10.0 3.824369229036346
bond_coeff 1612 harmonic 10.0 7.01134081328244
bond_coeff 1613 harmonic 10.0 3.845685894609699
bond_coeff 1614 harmonic 10.0 6.7041778019381315
bond_coeff 1615 harmonic 10.0 5.95469562614244
bond_coeff 1616 harmonic 10.0 5.479735395071546
bond_coeff 1617 harmonic 10.0 3.8218974345212255
bond_coeff 1618 harmonic 10.0 5.722525666172241
bond_coeff 1619 harmonic 10.0 5.737046278356143
bond_coeff 1620 harmonic 10.0 5.762898576237474
bond_coeff 1621 harmonic 10.0 3.8512595342303357
bond_coeff 1622 harmonic 10.0 5.41704716612291
bond_coeff 1623 harmonic 10.0 4.824800514010926
bond_coeff 1624 harmonic 10.0 6.59582443671753
bond_coeff 1625 harmonic 10.0 3.8407030606387966
bond_coeff 1626 harmonic 10.0 5.861134702427517
bond_coeff 1627 harmonic 10.0 6.686740611089991
bond_coeff 1628 harmonic 10.0 3.815691287302991
bond_coeff 1629 harmonic 10.0 5.6340127795382315
bond_coeff 1630 harmonic 10.0 5.338445466612919
bond_coeff 1631 harmonic 10.0 6.087610368609338
bond_coeff 1632 harmonic 10.0 3.82222448320347
bond_coeff 1633 harmonic 10.0 5.57254878848091
bond_coeff 1634 harmonic 10.0 5.3051390179711575
bond_coeff 1635 harmonic 10.0 6.123185445501394
bond_coeff 1636 harmonic 10.0 3.7915036594997678
bond_coeff 1637 harmonic 10.0 5.570215435690087
bond_coeff 1638 harmonic 10.0 5.303621404285954
bond_coeff 1639 harmonic 10.0 5.891035562615457
bond_coeff 1640 harmonic 10.0 3.8348663601226103
bond_coeff 1641 harmonic 10.0 5.5679349852526165
bond_coeff 1642 harmonic 10.0 4.968299507879937
bond_coeff 1643 harmonic 10.0 5.87607011530665
bond_coeff 1644 harmonic 10.0 3.798591844354955
bond_coeff 1645 harmonic 10.0 5.411450822099383
bond_coeff 1646 harmonic 10.0 5.185190449732772
bond_coeff 1647 harmonic 10.0 6.196813697377057
bond_coeff 1648 harmonic 10.0 3.868061530017328
bond_coeff 1649 harmonic 10.0 5.634900176578102
bond_coeff 1650 harmonic 10.0 5.37964682855667
bond_coeff 1651 harmonic 10.0 5.970896080154122
bond_coeff 1652 harmonic 10.0 3.7986050071045976
bond_coeff 1653 harmonic 10.0 5.492549499094211
bond_coeff 1654 harmonic 10.0 5.0261217653375665
bond_coeff 1655 harmonic 10.0 6.340930531081386
bond_coeff 1656 harmonic 10.0 3.765434901840692
bond_coeff 1657 harmonic 10.0 5.503862280253759
bond_coeff 1658 harmonic 10.0 5.457416971425236
bond_coeff 1659 harmonic 10.0 6.44615389205068
bond_coeff 1660 harmonic 10.0 3.799342048302574
bond_coeff 1661 harmonic 10.0 5.417573257465018
bond_coeff 1662 harmonic 10.0 4.959274140436294
bond_coeff 1663 harmonic 10.0 6.3446512906542
bond_coeff 1664 harmonic 10.0 3.8712917740723225
bond_coeff 1665 harmonic 10.0 5.499399967269164
bond_coeff 1666 harmonic 10.0 5.436009565848834
bond_coeff 1667 harmonic 10.0 6.171004780422724
bond_coeff 1668 harmonic 10.0 3.848753044818547
bond_coeff 1669 harmonic 10.0 5.523287064783061
bond_coeff 1670 harmonic 10.0 4.886982709197968
bond_coeff 1671 harmonic 10.0 6.2680379705295275
bond_coeff 1672 harmonic 10.0 3.7894326752166854
bond_coeff 1673 harmonic 10.0 5.405561950435852
bond_coeff 1674 harmonic 10.0 5.376523040032463
bond_coeff 1675 harmonic 10.0 6.236096535493975
bond_coeff 1676 harmonic 10.0 3.7840322408774445
bond_coeff 1677 harmonic 10.0 5.4046276467486525
bond_coeff 1678 harmonic 10.0 4.874392269811697
bond_coeff 1679 harmonic 10.0 5.963983568052481
bond_coeff 1680 harmonic 10.0 3.8232577731562705
bond_coeff 1681 harmonic 10.0 5.520126810137606
bond_coeff 1682 harmonic 10.0 5.367252556010376
bond_coeff 1683 harmonic 10.0 6.248839892332013
bond_coeff 1684 harmonic 10.0 3.819332402397053
bond_coeff 1685 harmonic 10.0 5.5646293677117304
bond_coeff 1686 harmonic 10.0 5.182711645461279
bond_coeff 1687 harmonic 10.0 5.704287860899034
bond_coeff 1688 harmonic 10.0 3.842264957027298
bond_coeff 1689 harmonic 10.0 5.552422894556939
bond_coeff 1690 harmonic 10.0 5.936177221074183
bond_coeff 1691 harmonic 10.0 7.05408392351551
bond_coeff 1692 harmonic 10.0 3.846270921295065
bond_coeff 1693 harmonic 10.0 6.419579425476403
bond_coeff 1694 harmonic 10.0 6.84506391496821
bond_coeff 1695 harmonic 10.0 3.8547892289981296
bond_coeff 1696 harmonic 10.0 5.64110804718363
bond_coeff 1697 harmonic 10.0 3.8767383197734584
bond_coeff 1698 harmonic 10.0 3.786607980765901
bond_coeff 1699 harmonic 10.0 6.483995681676544
bond_coeff 1700 harmonic 10.0 6.376558632993207
bond_coeff 1701 harmonic 10.0 7.107608599240691
bond_coeff 1702 harmonic 10.0 3.846322919360773
bond_coeff 1703 harmonic 10.0 6.41333766458619
bond_coeff 1704 harmonic 10.0 5.760564208478187
bond_coeff 1705 harmonic 10.0 3.8708526192558685
bond_coeff 1706 harmonic 10.0 5.587423377550704
bond_coeff 1707 harmonic 10.0 7.299650676573511
bond_coeff 1708 harmonic 10.0 3.804076760529418
bond_coeff 1709 harmonic 10.0 5.736880685529374
bond_coeff 1710 harmonic 10.0 4.726944044517562
bond_coeff 1711 harmonic 10.0 6.767414572789237
bond_coeff 1712 harmonic 10.0 6.604021502084937
bond_coeff 1713 harmonic 10.0 7.333280302838567
bond_coeff 1714 harmonic 10.0 3.810931644624456
bond_coeff 1715 harmonic 10.0 5.281117306025316
bond_coeff 1716 harmonic 10.0 5.914972527408728
bond_coeff 1717 harmonic 10.0 7.409628870598049
bond_coeff 1718 harmonic 10.0 3.8100656162328685
bond_coeff 1719 harmonic 10.0 5.278001515725418
bond_coeff 1720 harmonic 10.0 4.949121134100473
bond_coeff 1721 harmonic 10.0 6.261221925471088
bond_coeff 1722 harmonic 10.0 3.843579061239673
bond_coeff 1723 harmonic 10.0 5.427706698044769
bond_coeff 1724 harmonic 10.0 5.055501953317799
bond_coeff 1725 harmonic 10.0 6.146942329321148
bond_coeff 1726 harmonic 10.0 5.794022782143672
bond_coeff 1727 harmonic 10.0 3.831070346521963
bond_coeff 1728 harmonic 10.0 5.437481034449689
bond_coeff 1729 harmonic 10.0 4.949767671315497
bond_coeff 1730 harmonic 10.0 6.231179663595011
bond_coeff 1731 harmonic 10.0 6.7830966379670645
bond_coeff 1732 harmonic 10.0 3.8472457680787655
bond_coeff 1733 harmonic 10.0 5.385285507751645
bond_coeff 1734 harmonic 10.0 5.090176814217753
bond_coeff 1735 harmonic 10.0 5.791631894380022
bond_coeff 1736 harmonic 10.0 3.821439519343475
bond_coeff 1737 harmonic 10.0 5.410822488309898
bond_coeff 1738 harmonic 10.0 4.686587244466917
bond_coeff 1739 harmonic 10.0 6.048057539408845
bond_coeff 1740 harmonic 10.0 6.2045950713966835
bond_coeff 1741 harmonic 10.0 3.80423448278362
bond_coeff 1742 harmonic 10.0 5.456381584896715
bond_coeff 1743 harmonic 10.0 5.534347296655687
bond_coeff 1744 harmonic 10.0 6.065088622600645
bond_coeff 1745 harmonic 10.0 4.540880971793916
bond_coeff 1746 harmonic 10.0 5.444749764681578
bond_coeff 1747 harmonic 10.0 5.596981329252398
bond_coeff 1748 harmonic 10.0 7.2228872343405675
bond_coeff 1749 harmonic 10.0 7.381097479372562
bond_coeff 1750 harmonic 10.0 3.847713606805997
bond_coeff 1751 harmonic 10.0 5.6102584610693365
bond_coeff 1752 harmonic 10.0 4.92904656094866
bond_coeff 1753 harmonic 10.0 5.9272084491774
bond_coeff 1754 harmonic 10.0 7.372794585501488
bond_coeff 1755 harmonic 10.0 3.8265781058277244
bond_coeff 1756 harmonic 10.0 5.463094361257167
bond_coeff 1757 harmonic 10.0 5.335644290992428
bond_coeff 1758 harmonic 10.0 6.251959692768341
bond_coeff 1759 harmonic 10.0 3.7657535766430477
bond_coeff 1760 harmonic 10.0 5.456335766794419
bond_coeff 1761 harmonic 10.0 5.051623501410205
bond_coeff 1762 harmonic 10.0 6.7703027997276495
bond_coeff 1763 harmonic 10.0 6.398984294401736
bond_coeff 1764 harmonic 10.0 4.709363014251519
bond_coeff 1765 harmonic 10.0 3.791846515881145
bond_coeff 1766 harmonic 10.0 5.459029217727265
bond_coeff 1767 harmonic 10.0 4.903039873384679
bond_coeff 1768 harmonic 10.0 3.773605702772884
bond_coeff 1769 harmonic 10.0 6.687488317746809
bond_coeff 1770 harmonic 10.0 3.8432538297645755
bond_coeff 1771 harmonic 10.0 5.861655056381258
bond_coeff 1772 harmonic 10.0 3.8530507393492766
bond_coeff 1773 harmonic 10.0 6.8800799413960405
bond_coeff 1774 harmonic 10.0 3.83075710532527
bond_coeff 1775 harmonic 10.0 6.338209526356809
bond_coeff 1776 harmonic 10.0 3.809278146840948
bond_coeff 1777 harmonic 10.0 5.777785042730467
bond_coeff 1778 harmonic 10.0 6.855443092900711
bond_coeff 1779 harmonic 10.0 7.354182483457977
bond_coeff 1780 harmonic 10.0 3.8191883954578576
bond_coeff 1781 harmonic 10.0 6.446735608042244
bond_coeff 1782 harmonic 10.0 5.948394741440733
bond_coeff 1783 harmonic 10.0 6.452828837029516
bond_coeff 1784 harmonic 10.0 6.594975360075259
bond_coeff 1785 harmonic 10.0 3.763694992955705
bond_coeff 1786 harmonic 10.0 6.317911047173731
bond_coeff 1787 harmonic 10.0 7.171596753861718
bond_coeff 1788 harmonic 10.0 7.029174916019661
bond_coeff 1789 harmonic 10.0 5.277632044771595
bond_coeff 1790 harmonic 10.0 7.423267474636774
bond_coeff 1791 harmonic 10.0 3.735692706848339
bond_coeff 1792 harmonic 10.0 5.921232979709544
bond_coeff 1793 harmonic 10.0 5.992311740889321
bond_coeff 1794 harmonic 10.0 6.444454980834296
bond_coeff 1795 harmonic 10.0 7.393578294709544
bond_coeff 1796 harmonic 10.0 3.8792009486490904
bond_coeff 1797 harmonic 10.0 5.8002930960426475
bond_coeff 1798 harmonic 10.0 5.428719922781077
bond_coeff 1799 harmonic 10.0 6.559961890133213
bond_coeff 1800 harmonic 10.0 3.873060805099751
bond_coeff 1801 harmonic 10.0 5.479689772240772
bond_coeff 1802 harmonic 10.0 5.355007002796543
bond_coeff 1803 harmonic 10.0 6.228426767651684
bond_coeff 1804 harmonic 10.0 3.7778830050704473
bond_coeff 1805 harmonic 10.0 5.511669438563964
bond_coeff 1806 harmonic 10.0 4.951555311212841
bond_coeff 1807 harmonic 10.0 6.173799478441139
bond_coeff 1808 harmonic 10.0 4.8913801733253175
bond_coeff 1809 harmonic 10.0 6.4284134901233525
bond_coeff 1810 harmonic 10.0 3.867208295398634
bond_coeff 1811 harmonic 10.0 5.435393270040354
bond_coeff 1812 harmonic 10.0 4.960826544034771
bond_coeff 1813 harmonic 10.0 6.10004098346888
bond_coeff 1814 harmonic 10.0 7.2176589002251985
bond_coeff 1815 harmonic 10.0 7.269140251776678
bond_coeff 1816 harmonic 10.0 6.982614123664564
bond_coeff 1817 harmonic 10.0 3.825258161222567
bond_coeff 1818 harmonic 10.0 5.138667142362882
bond_coeff 1819 harmonic 10.0 4.874423042781579
bond_coeff 1820 harmonic 10.0 5.817585409772678
bond_coeff 1821 harmonic 10.0 6.800147057233397
bond_coeff 1822 harmonic 10.0 3.8651908102964185
bond_coeff 1823 harmonic 10.0 5.7541463311250505
bond_coeff 1824 harmonic 10.0 5.469597791428524
bond_coeff 1825 harmonic 10.0 6.199104774078264
bond_coeff 1826 harmonic 10.0 3.7381680005050644
bond_coeff 1827 harmonic 10.0 5.4780288425673564
bond_coeff 1828 harmonic 10.0 5.021951811795887
bond_coeff 1829 harmonic 10.0 6.377617109861645
bond_coeff 1830 harmonic 10.0 6.288052162633513
bond_coeff 1831 harmonic 10.0 3.776916731938892
bond_coeff 1832 harmonic 10.0 5.318825058224792
bond_coeff 1833 harmonic 10.0 5.157392752156843
bond_coeff 1834 harmonic 10.0 6.2805811832982466
bond_coeff 1835 harmonic 10.0 7.161710689493113
bond_coeff 1836 harmonic 10.0 3.8484282505978835
bond_coeff 1837 harmonic 10.0 5.441801172406055
bond_coeff 1838 harmonic 10.0 5.089852650126532
bond_coeff 1839 harmonic 10.0 6.133946527318289
bond_coeff 1840 harmonic 10.0 3.847128799507494
bond_coeff 1841 harmonic 10.0 5.647140869502015
bond_coeff 1842 harmonic 10.0 5.542066401623135
bond_coeff 1843 harmonic 10.0 7.2109153371815395
bond_coeff 1844 harmonic 10.0 3.8731640812131864
bond_coeff 1845 harmonic 10.0 5.715286519501883
bond_coeff 1846 harmonic 10.0 5.925580140374446
bond_coeff 1847 harmonic 10.0 7.298424487517839
bond_coeff 1848 harmonic 10.0 7.4599329755702275
bond_coeff 1849 harmonic 10.0 6.492226120522902
bond_coeff 1850 harmonic 10.0 3.8299216702172854
bond_coeff 1851 harmonic 10.0 5.40707869371253
bond_coeff 1852 harmonic 10.0 5.310499034930705
bond_coeff 1853 harmonic 10.0 6.379639488246972
bond_coeff 1854 harmonic 10.0 7.439059080286966
bond_coeff 1855 harmonic 10.0 6.618557244596436
bond_coeff 1856 harmonic 10.0 3.8353878552240195
bond_coeff 1857 harmonic 10.0 5.531265677943867
bond_coeff 1858 harmonic 10.0 5.309623338806618
bond_coeff 1859 harmonic 10.0 4.712313656793223
bond_coeff 1860 harmonic 10.0 6.35777476795144
bond_coeff 1861 harmonic 10.0 7.3966681688446805
bond_coeff 1862 harmonic 10.0 3.781494413588369
bond_coeff 1863 harmonic 10.0 5.647397630767658
bond_coeff 1864 harmonic 10.0 6.695797189282229
bond_coeff 1865 harmonic 10.0 3.8339274901855025
bond_coeff 1866 harmonic 10.0 6.911193818726244
bond_coeff 1867 harmonic 10.0 7.227627549894915
bond_coeff 1868 harmonic 10.0 7.487997061965244
bond_coeff 1869 harmonic 10.0 3.8317358990410457
bond_coeff 1870 harmonic 10.0 7.005469291917546
bond_coeff 1871 harmonic 10.0 7.1426185674442895
bond_coeff 1872 harmonic 10.0 3.847726601514199
bond_coeff 1873 harmonic 10.0 5.862593282839951
bond_coeff 1874 harmonic 10.0 3.7696949478704447
bond_coeff 1875 harmonic 10.0 6.87845186070239
bond_coeff 1876 harmonic 10.0 3.815088465553591
bond_coeff 1877 harmonic 10.0 6.84851078702517
bond_coeff 1878 harmonic 10.0 5.274845969315125
bond_coeff 1879 harmonic 10.0 5.742429799309709
bond_coeff 1880 harmonic 10.0 7.41882740060719
bond_coeff 1881 harmonic 10.0 3.733282737752396
bond_coeff 1882 harmonic 10.0 6.631809707764537
bond_coeff 1883 harmonic 10.0 6.052082286287913
bond_coeff 1884 harmonic 10.0 4.201594935259709
bond_coeff 1885 harmonic 10.0 6.197636646335427
bond_coeff 1886 harmonic 10.0 3.7740826700007686
bond_coeff 1887 harmonic 10.0 6.016261297516917
bond_coeff 1888 harmonic 10.0 6.1876651493111545
bond_coeff 1889 harmonic 10.0 7.101239328455272
bond_coeff 1890 harmonic 10.0 4.908176850929499
bond_coeff 1891 harmonic 10.0 4.733972961477484
bond_coeff 1892 harmonic 10.0 5.985474083144962
bond_coeff 1893 harmonic 10.0 3.8055091643563173
bond_coeff 1894 harmonic 10.0 5.521322305390263
bond_coeff 1895 harmonic 10.0 5.228393634760109
bond_coeff 1896 harmonic 10.0 7.4139125972728
bond_coeff 1897 harmonic 10.0 6.288489484765015
bond_coeff 1898 harmonic 10.0 6.209170637049694
bond_coeff 1899 harmonic 10.0 4.882560803512851
bond_coeff 1900 harmonic 10.0 6.90337598570439
bond_coeff 1901 harmonic 10.0 3.828955471143546
bond_coeff 1902 harmonic 10.0 5.495943958957365
bond_coeff 1903 harmonic 10.0 6.168678950958643
bond_coeff 1904 harmonic 10.0 7.137604640213694
bond_coeff 1905 harmonic 10.0 3.75620819444288
bond_coeff 1906 harmonic 10.0 5.471115060022036
bond_coeff 1907 harmonic 10.0 5.049148443054512
bond_coeff 1908 harmonic 10.0 5.989440708446793
bond_coeff 1909 harmonic 10.0 7.219307446008923
bond_coeff 1910 harmonic 10.0 5.9244071433350936
bond_coeff 1911 harmonic 10.0 3.8390102891240185
bond_coeff 1912 harmonic 10.0 5.538844644869544
bond_coeff 1913 harmonic 10.0 5.010479019016043
bond_coeff 1914 harmonic 10.0 6.309152082490982
bond_coeff 1915 harmonic 10.0 6.889448453976552
bond_coeff 1916 harmonic 10.0 5.045582226066677
bond_coeff 1917 harmonic 10.0 4.315333127349498
bond_coeff 1918 harmonic 10.0 6.810998458375999
bond_coeff 1919 harmonic 10.0 3.766165158354056
bond_coeff 1920 harmonic 10.0 5.125514608310067
bond_coeff 1921 harmonic 10.0 4.916685875668696
bond_coeff 1922 harmonic 10.0 6.107086048190236
bond_coeff 1923 harmonic 10.0 3.803117142555558
bond_coeff 1924 harmonic 10.0 5.5274044541719745
bond_coeff 1925 harmonic 10.0 5.214796256806209
bond_coeff 1926 harmonic 10.0 6.259392941811533
bond_coeff 1927 harmonic 10.0 3.8046944686794646
bond_coeff 1928 harmonic 10.0 5.482864214988362
bond_coeff 1929 harmonic 10.0 5.30049997641733
bond_coeff 1930 harmonic 10.0 6.2083008947698595
bond_coeff 1931 harmonic 10.0 6.692548094709515
bond_coeff 1932 harmonic 10.0 7.455025150863019
bond_coeff 1933 harmonic 10.0 7.446912111741354
bond_coeff 1934 harmonic 10.0 3.777975648412769
bond_coeff 1935 harmonic 10.0 5.554943744089577
bond_coeff 1936 harmonic 10.0 5.117743643442871
bond_coeff 1937 harmonic 10.0 5.739973867536303
bond_coeff 1938 harmonic 10.0 7.3248276430234345
bond_coeff 1939 harmonic 10.0 3.842928570764743
bond_coeff 1940 harmonic 10.0 5.425624388031303
bond_coeff 1941 harmonic 10.0 4.974273816347458
bond_coeff 1942 harmonic 10.0 5.937423683720076
bond_coeff 1943 harmonic 10.0 3.8414710723888223
bond_coeff 1944 harmonic 10.0 5.635822921277773
bond_coeff 1945 harmonic 10.0 5.343285506128224
bond_coeff 1946 harmonic 10.0 5.941809488699562
bond_coeff 1947 harmonic 10.0 3.8180099528419205
bond_coeff 1948 harmonic 10.0 5.456280784563782
bond_coeff 1949 harmonic 10.0 4.9422059851851685
bond_coeff 1950 harmonic 10.0 5.944182029514233
bond_coeff 1951 harmonic 10.0 7.070792034843054
bond_coeff 1952 harmonic 10.0 3.8186123133934444
bond_coeff 1953 harmonic 10.0 5.510807563325012
bond_coeff 1954 harmonic 10.0 5.197739893453713
bond_coeff 1955 harmonic 10.0 6.3938173261362605
bond_coeff 1956 harmonic 10.0 7.108058806734795
bond_coeff 1957 harmonic 10.0 7.156745070211741
bond_coeff 1958 harmonic 10.0 7.3453114297489055
bond_coeff 1959 harmonic 10.0 3.7713658003434185
bond_coeff 1960 harmonic 10.0 5.382239310918839
bond_coeff 1961 harmonic 10.0 5.25978136427742
bond_coeff 1962 harmonic 10.0 6.0648000791452175
bond_coeff 1963 harmonic 10.0 7.365996198750035
bond_coeff 1964 harmonic 10.0 3.8214264352464045
bond_coeff 1965 harmonic 10.0 5.644546040205537
bond_coeff 1966 harmonic 10.0 5.0983722892703485
bond_coeff 1967 harmonic 10.0 6.225327300632469
bond_coeff 1968 harmonic 10.0 3.8630298989265093
bond_coeff 1969 harmonic 10.0 5.449266005619472
bond_coeff 1970 harmonic 10.0 5.161685771141053
bond_coeff 1971 harmonic 10.0 5.970502491415608
bond_coeff 1972 harmonic 10.0 3.8661996844446547
bond_coeff 1973 harmonic 10.0 5.438143065422239
bond_coeff 1974 harmonic 10.0 4.571072084314583
bond_coeff 1975 harmonic 10.0 6.007403765354877
bond_coeff 1976 harmonic 10.0 7.332543896902354
bond_coeff 1977 harmonic 10.0 3.862240282530333
bond_coeff 1978 harmonic 10.0 5.202230290942538
bond_coeff 1979 harmonic 10.0 5.091895521316212
bond_coeff 1980 harmonic 10.0 6.383235856522934
bond_coeff 1981 harmonic 10.0 6.052908391839423
bond_coeff 1982 harmonic 10.0 6.809148258042276
bond_coeff 1983 harmonic 10.0 6.682417227321257
bond_coeff 1984 harmonic 10.0 4.914905899404394
bond_coeff 1985 harmonic 10.0 3.762034024301202
bond_coeff 1986 harmonic 10.0 5.541777693123377
bond_coeff 1987 harmonic 10.0 5.175557940937373
bond_coeff 1988 harmonic 10.0 6.424095267039535
bond_coeff 1989 harmonic 10.0 6.914318476899946
bond_coeff 1990 harmonic 10.0 3.843618087167356
bond_coeff 1991 harmonic 10.0 5.404821921210724
bond_coeff 1992 harmonic 10.0 4.997209221155322
bond_coeff 1993 harmonic 10.0 5.935739212600242
bond_coeff 1994 harmonic 10.0 3.8080572474688412
bond_coeff 1995 harmonic 10.0 5.193467050054315
bond_coeff 1996 harmonic 10.0 4.729566576336569
bond_coeff 1997 harmonic 10.0 5.711558456323454
bond_coeff 1998 harmonic 10.0 5.9905675857968745
bond_coeff 1999 harmonic 10.0 4.897070552891802
bond_coeff 2000 harmonic 10.0 7.1756602483674055
bond_coeff 2001 harmonic 10.0 3.8513114649428233
bond_coeff 2002 harmonic 10.0 5.707477551423238
bond_coeff 2003 harmonic 10.0 5.268225507701816
bond_coeff 2004 harmonic 10.0 6.28481503307774
bond_coeff 2005 harmonic 10.0 5.131140224160711
bond_coeff 2006 harmonic 10.0 6.623178995014403
bond_coeff 2007 harmonic 10.0 3.8277016602656158
bond_coeff 2008 harmonic 10.0 5.337846007520268
bond_coeff 2009 harmonic 10.0 5.046315487561202
bond_coeff 2010 harmonic 10.0 6.394356887131046
bond_coeff 2011 harmonic 10.0 6.262467564786274
bond_coeff 2012 harmonic 10.0 3.8259508622040537
bond_coeff 2013 harmonic 10.0 5.5771677399913235
bond_coeff 2014 harmonic 10.0 5.364895152749965
bond_coeff 2015 harmonic 10.0 6.38231149349511
bond_coeff 2016 harmonic 10.0 7.016558985713706
bond_coeff 2017 harmonic 10.0 5.266393452828976
bond_coeff 2018 harmonic 10.0 5.041884568293885
bond_coeff 2019 harmonic 10.0 5.9178881368272025
bond_coeff 2020 harmonic 10.0 3.8848809505569037
bond_coeff 2021 harmonic 10.0 5.490737655361071
bond_coeff 2022 harmonic 10.0 4.937732273017637
bond_coeff 2023 harmonic 10.0 6.2764799051697695
bond_coeff 2024 harmonic 10.0 6.004215186017236
bond_coeff 2025 harmonic 10.0 7.344589845593824
bond_coeff 2026 harmonic 10.0 6.450937916303352
bond_coeff 2027 harmonic 10.0 3.8495324391411487
bond_coeff 2028 harmonic 10.0 5.275784301883466
bond_coeff 2029 harmonic 10.0 5.109686878860582
bond_coeff 2030 harmonic 10.0 6.1593262618569025
bond_coeff 2031 harmonic 10.0 3.781454746522824
bond_coeff 2032 harmonic 10.0 5.52991862507939
bond_coeff 2033 harmonic 10.0 4.9343084621859585
bond_coeff 2034 harmonic 10.0 6.448131512306499
bond_coeff 2035 harmonic 10.0 5.495252496473664
bond_coeff 2036 harmonic 10.0 7.026250778331226
bond_coeff 2037 harmonic 10.0 6.694841297596241
bond_coeff 2038 harmonic 10.0 3.7774859364397493
bond_coeff 2039 harmonic 10.0 5.179053967666323
bond_coeff 2040 harmonic 10.0 5.042003570010656
bond_coeff 2041 harmonic 10.0 6.865107428147082
bond_coeff 2042 harmonic 10.0 5.718111576386036
bond_coeff 2043 harmonic 10.0 6.329636640439962
bond_coeff 2044 harmonic 10.0 6.784482294176925
bond_coeff 2045 harmonic 10.0 5.382768804249338
bond_coeff 2046 harmonic 10.0 7.402296940815066
bond_coeff 2047 harmonic 10.0 5.760711761579455
bond_coeff 2048 harmonic 10.0 3.7589094163068286
bond_coeff 2049 harmonic 10.0 5.248466442685921
bond_coeff 2050 harmonic 10.0 5.123875486387244
bond_coeff 2051 harmonic 10.0 5.328583301403853
bond_coeff 2052 harmonic 10.0 5.717280822209105
bond_coeff 2053 harmonic 10.0 3.8046024759493875
bond_coeff 2054 harmonic 10.0 5.283228179815829
bond_coeff 2055 harmonic 10.0 7.252709838398346
bond_coeff 2056 harmonic 10.0 3.83834599795276
bond_coeff 2057 harmonic 10.0 5.278314124794006
bond_coeff 2058 harmonic 10.0 3.824931371933367
bond_coeff 2059 harmonic 10.0 6.842031861954462
bond_coeff 2060 harmonic 10.0 3.7762812395265164
bond_coeff 2061 harmonic 10.0 5.626046569306027
bond_coeff 2062 harmonic 10.0 7.470649235508253
bond_coeff 2063 harmonic 10.0 3.795405116716803
bond_coeff 2064 harmonic 10.0 6.439883539319651
bond_coeff 2065 harmonic 10.0 6.971965289643954
bond_coeff 2066 harmonic 10.0 3.8154160978850213
bond_coeff 2067 harmonic 10.0 6.499292269162858
bond_coeff 2068 harmonic 10.0 7.318804547192118
bond_coeff 2069 harmonic 10.0 4.935098783205857
bond_coeff 2070 harmonic 10.0 5.5194474361117045
bond_coeff 2071 harmonic 10.0 6.6808831751498134
bond_coeff 2072 harmonic 10.0 3.861476401585282
bond_coeff 2073 harmonic 10.0 7.1441934464290595
bond_coeff 2074 harmonic 10.0 6.478086137124134
bond_coeff 2075 harmonic 10.0 6.685910558779566
bond_coeff 2076 harmonic 10.0 5.1669042956106805
bond_coeff 2077 harmonic 10.0 5.827469433639267
bond_coeff 2078 harmonic 10.0 3.8555025612752503
bond_coeff 2079 harmonic 10.0 5.42894096486599
bond_coeff 2080 harmonic 10.0 5.690711730530745
bond_coeff 2081 harmonic 10.0 7.489866487461588
bond_coeff 2082 harmonic 10.0 6.930072149696563
bond_coeff 2083 harmonic 10.0 5.162111970889415
bond_coeff 2084 harmonic 10.0 7.267468610183326
bond_coeff 2085 harmonic 10.0 6.320957205993405
bond_coeff 2086 harmonic 10.0 3.8517658288115015
bond_coeff 2087 harmonic 10.0 5.439365771852461
bond_coeff 2088 harmonic 10.0 5.715225279899301
bond_coeff 2089 harmonic 10.0 6.279052476289709
bond_coeff 2090 harmonic 10.0 7.458183424936659
bond_coeff 2091 harmonic 10.0 6.519064350042881
bond_coeff 2092 harmonic 10.0 5.184727572399539
bond_coeff 2093 harmonic 10.0 7.046651687149
bond_coeff 2094 harmonic 10.0 3.8719762395965254
bond_coeff 2095 harmonic 10.0 5.803559252734466
bond_coeff 2096 harmonic 10.0 4.833321839066784
bond_coeff 2097 harmonic 10.0 6.243828953454775
bond_coeff 2098 harmonic 10.0 3.776837301234982
bond_coeff 2099 harmonic 10.0 5.056856731211594
bond_coeff 2100 harmonic 10.0 5.008492787256473
bond_coeff 2101 harmonic 10.0 6.134663804969268
bond_coeff 2102 harmonic 10.0 3.818520655960877
bond_coeff 2103 harmonic 10.0 5.404266832790552
bond_coeff 2104 harmonic 10.0 5.088162733246646
bond_coeff 2105 harmonic 10.0 6.2209404433734985
bond_coeff 2106 harmonic 10.0 3.83304056853044
bond_coeff 2107 harmonic 10.0 5.7412629272661
bond_coeff 2108 harmonic 10.0 5.977039400907465
bond_coeff 2109 harmonic 10.0 6.652172577436649
bond_coeff 2110 harmonic 10.0 3.7653817867515142
bond_coeff 2111 harmonic 10.0 5.763592629601805
bond_coeff 2112 harmonic 10.0 5.487895771604986
bond_coeff 2113 harmonic 10.0 6.271666445212133
bond_coeff 2114 harmonic 10.0 3.8241731132363843
bond_coeff 2115 harmonic 10.0 5.571579668280798
bond_coeff 2116 harmonic 10.0 5.289489578399775
bond_coeff 2117 harmonic 10.0 5.970226126370749
bond_coeff 2118 harmonic 10.0 3.860854827625635
bond_coeff 2119 harmonic 10.0 5.5213766399332025
bond_coeff 2120 harmonic 10.0 4.8286954760059055
bond_coeff 2121 harmonic 10.0 6.358160111227155
bond_coeff 2122 harmonic 10.0 5.527458728927784
bond_coeff 2123 harmonic 10.0 6.143704094436839
bond_coeff 2124 harmonic 10.0 3.8656176738006582
bond_coeff 2125 harmonic 10.0 5.417019475689561
bond_coeff 2126 harmonic 10.0 5.26926939907234
bond_coeff 2127 harmonic 10.0 6.128213442758041
bond_coeff 2128 harmonic 10.0 5.157373362478237
bond_coeff 2129 harmonic 10.0 5.883748804971191
bond_coeff 2130 harmonic 10.0 3.870955954283123
bond_coeff 2131 harmonic 10.0 5.248523601928465
bond_coeff 2132 harmonic 10.0 3.773022660944411
bond_coeff 2133 harmonic 10.0 5.418588377059109
bond_coeff 2134 harmonic 10.0 3.833405796416572
bond_coeff 2135 harmonic 10.0 5.55954134798905
bond_coeff 2136 harmonic 10.0 7.421947183859508
bond_coeff 2137 harmonic 10.0 3.861955463233617
bond_coeff 2138 harmonic 10.0 7.326315581518462
bond_coeff 2139 harmonic 10.0 3.7939688981329325
bond_coeff 2140 harmonic 10.0 3.754077782891571
bond_coeff 2141 harmonic 10.0 5.248485495835921
bond_coeff 2142 harmonic 10.0 5.520480051589724
bond_coeff 2143 harmonic 10.0 6.7179014580447545
bond_coeff 2144 harmonic 10.0 3.816713245712869
bond_coeff 2145 harmonic 10.0 5.131529986271154
bond_coeff 2146 harmonic 10.0 6.251687772114017
bond_coeff 2147 harmonic 10.0 3.8369388840584624
bond_coeff 2148 harmonic 10.0 5.7355121828830455
bond_coeff 2149 harmonic 10.0 3.764863875361234
bond_coeff 2150 harmonic 10.0 7.148860048986824
bond_coeff 2151 harmonic 10.0 6.553907231568059
bond_coeff 2152 harmonic 10.0 7.258346919237199
bond_coeff 2153 harmonic 10.0 7.47414878096497
bond_coeff 2154 harmonic 10.0 3.8051806790216833
bond_coeff 2155 harmonic 10.0 5.440045955688242
bond_coeff 2156 harmonic 10.0 4.997969587742622
bond_coeff 2157 harmonic 10.0 6.0983112416471545
bond_coeff 2158 harmonic 10.0 3.8327405338738885
bond_coeff 2159 harmonic 10.0 5.546990174860591
bond_coeff 2160 harmonic 10.0 5.268263471012045
bond_coeff 2161 harmonic 10.0 5.953100032756052
bond_coeff 2162 harmonic 10.0 6.800073529014245
bond_coeff 2163 harmonic 10.0 3.8762352869762777
bond_coeff 2164 harmonic 10.0 5.482636227217705
bond_coeff 2165 harmonic 10.0 4.894088270556643
bond_coeff 2166 harmonic 10.0 6.2181990962014115
bond_coeff 2167 harmonic 10.0 3.8171324315512023
bond_coeff 2168 harmonic 10.0 5.491092787414899
bond_coeff 2169 harmonic 10.0 5.429769792541834
bond_coeff 2170 harmonic 10.0 6.578548472117517
bond_coeff 2171 harmonic 10.0 3.8015523145157335
bond_coeff 2172 harmonic 10.0 5.478512571857438
bond_coeff 2173 harmonic 10.0 4.950212116667323
bond_coeff 2174 harmonic 10.0 6.197289730196568
bond_coeff 2175 harmonic 10.0 7.142240544815047
bond_coeff 2176 harmonic 10.0 3.8408983324217245
bond_coeff 2177 harmonic 10.0 5.207897848460534
bond_coeff 2178 harmonic 10.0 4.840227267391458
bond_coeff 2179 harmonic 10.0 6.066918492941848
bond_coeff 2180 harmonic 10.0 3.820641307424707
bond_coeff 2181 harmonic 10.0 5.44893567589121
bond_coeff 2182 harmonic 10.0 4.937266450172609
bond_coeff 2183 harmonic 10.0 6.265804018639603
bond_coeff 2184 harmonic 10.0 3.8187694353024284
bond_coeff 2185 harmonic 10.0 5.328648984498799
bond_coeff 2186 harmonic 10.0 5.132971848744167
bond_coeff 2187 harmonic 10.0 5.978745687851263
bond_coeff 2188 harmonic 10.0 3.8189658285981056
bond_coeff 2189 harmonic 10.0 5.517771289207265
bond_coeff 2190 harmonic 10.0 4.544073062792897
bond_coeff 2191 harmonic 10.0 6.407893569652977
bond_coeff 2192 harmonic 10.0 5.1720982202583965
bond_coeff 2193 harmonic 10.0 3.8496882990704706
bond_coeff 2194 harmonic 10.0 5.081977961384724
bond_coeff 2195 harmonic 10.0 5.022051373691829
bond_coeff 2196 harmonic 10.0 4.998489771921114
bond_coeff 2197 harmonic 10.0 6.75803225798752
bond_coeff 2198 harmonic 10.0 3.8891644346825798
bond_coeff 2199 harmonic 10.0 5.257042895012351
bond_coeff 2200 harmonic 10.0 7.36426506855911
bond_coeff 2201 harmonic 10.0 3.8570584646852257
bond_coeff 2202 harmonic 10.0 5.539494561780885
bond_coeff 2203 harmonic 10.0 3.9081581339551716
bond_coeff 2204 harmonic 10.0 6.43547978009409
bond_coeff 2205 harmonic 10.0 3.866846260197046
bond_coeff 2206 harmonic 10.0 5.781920096300173
bond_coeff 2207 harmonic 10.0 6.707108169695787
bond_coeff 2208 harmonic 10.0 3.7796428402694255
bond_coeff 2209 harmonic 10.0 6.741913674914565
bond_coeff 2210 harmonic 10.0 3.7742681409778074
bond_coeff 2211 harmonic 10.0 6.96768254156287
bond_coeff 2212 harmonic 10.0 3.8003289331319694
bond_coeff 2213 harmonic 10.0 6.330916205416081
bond_coeff 2214 harmonic 10.0 3.8059689961953205
bond_coeff 2215 harmonic 10.0 5.474531943463307
bond_coeff 2216 harmonic 10.0 5.863539886450847
bond_coeff 2217 harmonic 10.0 3.832009916479862
bond_coeff 2218 harmonic 10.0 5.675499977975513
bond_coeff 2219 harmonic 10.0 6.339353279318026
bond_coeff 2220 harmonic 10.0 3.824892155342425
bond_coeff 2221 harmonic 10.0 5.542427266099205
bond_coeff 2222 harmonic 10.0 5.861919480852652
bond_coeff 2223 harmonic 10.0 7.115820402455358
bond_coeff 2224 harmonic 10.0 3.79390300350443
bond_coeff 2225 harmonic 10.0 5.3140850576557375
bond_coeff 2226 harmonic 10.0 4.904824155869405
bond_coeff 2227 harmonic 10.0 5.894107226713816
bond_coeff 2228 harmonic 10.0 3.8047076103164534
bond_coeff 2229 harmonic 10.0 5.330947382970498
bond_coeff 2230 harmonic 10.0 4.763507111362384
bond_coeff 2231 harmonic 10.0 6.063406633238438
bond_coeff 2232 harmonic 10.0 3.8071774321667875
bond_coeff 2233 harmonic 10.0 5.439797790359501
bond_coeff 2234 harmonic 10.0 5.271252223143945
bond_coeff 2235 harmonic 10.0 6.262100286645063
bond_coeff 2236 harmonic 10.0 3.842212904043723
bond_coeff 2237 harmonic 10.0 5.47381950743721
bond_coeff 2238 harmonic 10.0 4.811870738080988
bond_coeff 2239 harmonic 10.0 6.288600798269826
bond_coeff 2240 harmonic 10.0 3.7856175189789134
bond_coeff 2241 harmonic 10.0 5.134676231273009
bond_coeff 2242 harmonic 10.0 5.043778345645245
bond_coeff 2243 harmonic 10.0 6.184723114254988
bond_coeff 2244 harmonic 10.0 3.7650232403001276
bond_coeff 2245 harmonic 10.0 5.514254256016867
bond_coeff 2246 harmonic 10.0 5.226518917979741
bond_coeff 2247 harmonic 10.0 6.329123162018575
bond_coeff 2248 harmonic 10.0 3.8321534416043264
bond_coeff 2249 harmonic 10.0 5.627726006123602
bond_coeff 2250 harmonic 10.0 5.404183564609907
bond_coeff 2251 harmonic 10.0 6.511812343733498
bond_coeff 2252 harmonic 10.0 3.8178135103747617
bond_coeff 2253 harmonic 10.0 5.3460452672980665
bond_coeff 2254 harmonic 10.0 4.807941347396008
bond_coeff 2255 harmonic 10.0 6.148219254385792
bond_coeff 2256 harmonic 10.0 3.803432660111128
bond_coeff 2257 harmonic 10.0 5.2416600423911515
bond_coeff 2258 harmonic 10.0 4.975329134841231
bond_coeff 2259 harmonic 10.0 6.011031525453856
bond_coeff 2260 harmonic 10.0 3.8676737194339457
bond_coeff 2261 harmonic 10.0 5.576073887602289
bond_coeff 2262 harmonic 10.0 5.170125723809837
bond_coeff 2263 harmonic 10.0 5.743117620247732
bond_coeff 2264 harmonic 10.0 3.8203795622948293
bond_coeff 2265 harmonic 10.0 5.512322559502493
bond_coeff 2266 harmonic 10.0 4.992203922116967
bond_coeff 2267 harmonic 10.0 6.186671156607549
bond_coeff 2268 harmonic 10.0 3.805128118736622
bond_coeff 2269 harmonic 10.0 5.518876697299928
bond_coeff 2270 harmonic 10.0 5.4673210990392676
bond_coeff 2271 harmonic 10.0 6.161639392239706
bond_coeff 2272 harmonic 10.0 3.8254672917174455
bond_coeff 2273 harmonic 10.0 5.54301362076623
bond_coeff 2274 harmonic 10.0 5.104272719986656
bond_coeff 2275 harmonic 10.0 5.921984464687476
bond_coeff 2276 harmonic 10.0 3.8419786568902308
bond_coeff 2277 harmonic 10.0 5.641010547765374
bond_coeff 2278 harmonic 10.0 5.476175672857831
bond_coeff 2279 harmonic 10.0 6.261996486744477
bond_coeff 2280 harmonic 10.0 3.8226430646870684
bond_coeff 2281 harmonic 10.0 5.63426126479772
bond_coeff 2282 harmonic 10.0 5.27403071663412
bond_coeff 2283 harmonic 10.0 7.035701812896872
bond_coeff 2284 harmonic 10.0 3.8436831294996177
bond_coeff 2285 harmonic 10.0 5.53694861814701
bond_coeff 2286 harmonic 10.0 5.969664982224721
bond_coeff 2287 harmonic 10.0 6.379882444058026
bond_coeff 2288 harmonic 10.0 7.085859157505168
bond_coeff 2289 harmonic 10.0 5.822662621172542
bond_coeff 2290 harmonic 10.0 6.5038142654906625
bond_coeff 2291 harmonic 10.0 3.8620849291541965
bond_coeff 2292 harmonic 10.0 5.650362820208996
bond_coeff 2293 harmonic 10.0 4.873458730716823
bond_coeff 2294 harmonic 10.0 5.807426280203662
bond_coeff 2295 harmonic 10.0 7.470107094279177
bond_coeff 2296 harmonic 10.0 3.8273881433687986
bond_coeff 2297 harmonic 10.0 5.534446675142856
bond_coeff 2298 harmonic 10.0 5.424251100382414
bond_coeff 2299 harmonic 10.0 6.342562573597506
bond_coeff 2300 harmonic 10.0 3.8408853146117132
bond_coeff 2301 harmonic 10.0 5.525522599718506
bond_coeff 2302 harmonic 10.0 4.916034987670445
bond_coeff 2303 harmonic 10.0 6.053247062527673
bond_coeff 2304 harmonic 10.0 5.465757038142101
bond_coeff 2305 harmonic 10.0 5.836831332152748
bond_coeff 2306 harmonic 10.0 3.8606476140668464
bond_coeff 2307 harmonic 10.0 5.313059382314488
bond_coeff 2308 harmonic 10.0 5.043748605947772
bond_coeff 2309 harmonic 10.0 5.983318477233199
bond_coeff 2310 harmonic 10.0 6.632186668060555
bond_coeff 2311 harmonic 10.0 4.635795508863618
bond_coeff 2312 harmonic 10.0 5.350691544090351
bond_coeff 2313 harmonic 10.0 7.343827340018272
bond_coeff 2314 harmonic 10.0 5.699517523440015
bond_coeff 2315 harmonic 10.0 3.812820478333578
bond_coeff 2316 harmonic 10.0 5.567387178919741
bond_coeff 2317 harmonic 10.0 4.738828969270785
bond_coeff 2318 harmonic 10.0 6.314910925737587
bond_coeff 2319 harmonic 10.0 6.430901958512513
bond_coeff 2320 harmonic 10.0 3.8291252264714437
bond_coeff 2321 harmonic 10.0 5.091453623475329
bond_coeff 2322 harmonic 10.0 4.898867216000044
bond_coeff 2323 harmonic 10.0 6.332945602166495
bond_coeff 2324 harmonic 10.0 7.223191815257295
bond_coeff 2325 harmonic 10.0 7.448073576435729
bond_coeff 2326 harmonic 10.0 3.8479475048394396
bond_coeff 2327 harmonic 10.0 5.312052334079546
bond_coeff 2328 harmonic 10.0 4.922824392561641
bond_coeff 2329 harmonic 10.0 6.06489076571045
bond_coeff 2330 harmonic 10.0 5.568285193845601
bond_coeff 2331 harmonic 10.0 3.8275318418009237
bond_coeff 2332 harmonic 10.0 5.494915831930463
bond_coeff 2333 harmonic 10.0 4.946412841645947
bond_coeff 2334 harmonic 10.0 6.313556842224512
bond_coeff 2335 harmonic 10.0 5.1404863583127804
bond_coeff 2336 harmonic 10.0 6.856485980442161
bond_coeff 2337 harmonic 10.0 6.910463081443946
bond_coeff 2338 harmonic 10.0 5.870962442393929
bond_coeff 2339 harmonic 10.0 6.530857524092843
bond_coeff 2340 harmonic 10.0 3.7768902552232064
bond_coeff 2341 harmonic 10.0 5.201365205405207
bond_coeff 2342 harmonic 10.0 4.8540910580663805
bond_coeff 2343 harmonic 10.0 5.784548383409014
bond_coeff 2344 harmonic 10.0 3.8182063852023567
bond_coeff 2345 harmonic 10.0 5.3856568772991995
bond_coeff 2346 harmonic 10.0 6.94867613290473
bond_coeff 2347 harmonic 10.0 3.9170652279480973
bond_coeff 2348 harmonic 10.0 5.231309587474241
bond_coeff 2349 harmonic 10.0 6.903470141892407
bond_coeff 2350 harmonic 10.0 3.8444765573482087
bond_coeff 2351 harmonic 10.0 7.18334184067555
bond_coeff 2352 harmonic 10.0 3.7851816336868267
bond_coeff 2353 harmonic 10.0 5.535584883280168
bond_coeff 2354 harmonic 10.0 7.480975872170697
bond_coeff 2355 harmonic 10.0 3.8453478386226565
bond_coeff 2356 harmonic 10.0 6.7386497163749395
bond_coeff 2357 harmonic 10.0 3.817499181401357
bond_coeff 2358 harmonic 10.0 6.039478454303818
bond_coeff 2359 harmonic 10.0 3.8723894432249555
bond_coeff 2360 harmonic 10.0 7.219736837309239
bond_coeff 2361 harmonic 10.0 6.6157463675688195
bond_coeff 2362 harmonic 10.0 3.8208114321436963
bond_coeff 2363 harmonic 10.0 5.424490759509134
bond_coeff 2364 harmonic 10.0 5.688664166568452
bond_coeff 2365 harmonic 10.0 6.5631547292441725
bond_coeff 2366 harmonic 10.0 3.841158679357049
bond_coeff 2367 harmonic 10.0 5.833172378731826
bond_coeff 2368 harmonic 10.0 5.250199996190629
bond_coeff 2369 harmonic 10.0 6.112454498808149
bond_coeff 2370 harmonic 10.0 6.433436095897743
bond_coeff 2371 harmonic 10.0 7.416508612548095
bond_coeff 2372 harmonic 10.0 3.8762610851179686
bond_coeff 2373 harmonic 10.0 5.291927815078352
bond_coeff 2374 harmonic 10.0 4.90397797711204
bond_coeff 2375 harmonic 10.0 6.044964846878756
bond_coeff 2376 harmonic 10.0 6.623360174412988
bond_coeff 2377 harmonic 10.0 3.8011708722444952
bond_coeff 2378 harmonic 10.0 5.454081040835382
bond_coeff 2379 harmonic 10.0 4.988406559213071
bond_coeff 2380 harmonic 10.0 6.051817908694874
bond_coeff 2381 harmonic 10.0 3.808687437950238
bond_coeff 2382 harmonic 10.0 5.392262975782971
bond_coeff 2383 harmonic 10.0 5.059466375024133
bond_coeff 2384 harmonic 10.0 6.133237318089033
bond_coeff 2385 harmonic 10.0 3.823061600340749
bond_coeff 2386 harmonic 10.0 5.476869543817893
bond_coeff 2387 harmonic 10.0 5.279744311990888
bond_coeff 2388 harmonic 10.0 6.223166396618379
bond_coeff 2389 harmonic 10.0 7.133316199356374
bond_coeff 2390 harmonic 10.0 6.1922209262913235
bond_coeff 2391 harmonic 10.0 3.805193818979525
bond_coeff 2392 harmonic 10.0 5.620542678425292
bond_coeff 2393 harmonic 10.0 5.1592053651701235
bond_coeff 2394 harmonic 10.0 6.405724002796252
bond_coeff 2395 harmonic 10.0 3.7964457061836296
bond_coeff 2396 harmonic 10.0 5.309058296911057
bond_coeff 2397 harmonic 10.0 5.17418592630763
bond_coeff 2398 harmonic 10.0 6.342972489298701
bond_coeff 2399 harmonic 10.0 3.85571005133945
bond_coeff 2400 harmonic 10.0 5.524671935961441
bond_coeff 2401 harmonic 10.0 5.1332738091787045
bond_coeff 2402 harmonic 10.0 6.500407679522877
bond_coeff 2403 harmonic 10.0 4.962670651977618
bond_coeff 2404 harmonic 10.0 5.143802095726471
bond_coeff 2405 harmonic 10.0 6.7064521171779035
bond_coeff 2406 harmonic 10.0 3.793850286977592
bond_coeff 2407 harmonic 10.0 5.456354094081504
bond_coeff 2408 harmonic 10.0 5.7656396002525
bond_coeff 2409 harmonic 10.0 5.830557434756974
bond_coeff 2410 harmonic 10.0 4.61768340188021
bond_coeff 2411 harmonic 10.0 7.3008629626914665
bond_coeff 2412 harmonic 10.0 3.853842238597727
bond_coeff 2413 harmonic 10.0 5.926592612960666
bond_coeff 2414 harmonic 10.0 3.795339247023918
bond_coeff 2415 harmonic 10.0 5.562067960749853
bond_coeff 2416 harmonic 10.0 3.8178527996767957
bond_coeff 2417 harmonic 10.0 6.084817170630527
bond_coeff 2418 harmonic 10.0 3.7779624137886882
bond_coeff 2419 harmonic 10.0 6.663377521947856
bond_coeff 2420 harmonic 10.0 3.843305868650048
bond_coeff 2421 harmonic 10.0 6.927459851922633
bond_coeff 2422 harmonic 10.0 3.8109447647532275
bond_coeff 2423 harmonic 10.0 6.825115383640053
bond_coeff 2424 harmonic 10.0 3.75141306709884
bond_coeff 2425 harmonic 10.0 6.213895718468408
bond_coeff 2426 harmonic 10.0 7.202319070965953
bond_coeff 2427 harmonic 10.0 3.8833748209514987
bond_coeff 2428 harmonic 10.0 5.949630240611594
bond_coeff 2429 harmonic 10.0 3.8756805853940013
bond_coeff 2430 harmonic 10.0 7.373879575908468
bond_coeff 2431 harmonic 10.0 3.774572823512618
bond_coeff 2432 harmonic 10.0 3.858095385031321
bond_coeff 2433 harmonic 10.0 5.458177351460827
bond_coeff 2434 harmonic 10.0 7.259931129149915
bond_coeff 2435 harmonic 10.0 4.69039443970334
bond_coeff 2436 harmonic 10.0 6.422289311452732
bond_coeff 2437 harmonic 10.0 7.410276648007131
bond_coeff 2438 harmonic 10.0 4.54033038445443
bond_coeff 2439 harmonic 10.0 4.237275067776467
bond_coeff 2440 harmonic 10.0 3.825990067943198
bond_coeff 2441 harmonic 10.0 7.0785874297065945
bond_coeff 2442 harmonic 10.0 6.733461219907619
bond_coeff 2443 harmonic 10.0 6.691853256012121
bond_coeff 2444 harmonic 10.0 3.7852608892915316
bond_coeff 2445 harmonic 10.0 5.5142089187842664
bond_coeff 2446 harmonic 10.0 6.962147657152925
bond_coeff 2447 harmonic 10.0 7.465420282877568
bond_coeff 2448 harmonic 10.0 3.8436831294996168
bond_coeff 2449 harmonic 10.0 6.727830259452156
bond_coeff 2450 harmonic 10.0 7.30762615354672
bond_coeff 2451 harmonic 10.0 5.677974991139005
bond_coeff 2452 harmonic 10.0 6.788703852724754
bond_coeff 2453 harmonic 10.0 6.75467985917912
bond_coeff 2454 harmonic 10.0 3.8105905054203992
bond_coeff 2455 harmonic 10.0 5.918352811382563
bond_coeff 2456 harmonic 10.0 5.837987666996211
bond_coeff 2457 harmonic 10.0 7.491688728184043
bond_coeff 2458 harmonic 10.0 6.323171672507392
bond_coeff 2459 harmonic 10.0 5.722106255567104
bond_coeff 2460 harmonic 10.0 3.858224980479989
bond_coeff 2461 harmonic 10.0 5.510807563324993
bond_coeff 2462 harmonic 10.0 5.492139837986639
bond_coeff 2463 harmonic 10.0 6.382483842517738
bond_coeff 2464 harmonic 10.0 7.221322593541981
bond_coeff 2465 harmonic 10.0 7.328853934961472
bond_coeff 2466 harmonic 10.0 3.8385544154017177
bond_coeff 2467 harmonic 10.0 5.558228134936514
bond_coeff 2468 harmonic 10.0 5.018107212884157
bond_coeff 2469 harmonic 10.0 5.8031112345017135
bond_coeff 2470 harmonic 10.0 5.908680055646946
bond_coeff 2471 harmonic 10.0 5.77737829815567
bond_coeff 2472 harmonic 10.0 5.913915792433977
bond_coeff 2473 harmonic 10.0 3.8375252442166428
bond_coeff 2474 harmonic 10.0 5.416890251795778
bond_coeff 2475 harmonic 10.0 4.722838129769
bond_coeff 2476 harmonic 10.0 5.999216615525733
bond_coeff 2477 harmonic 10.0 3.798907737758319
bond_coeff 2478 harmonic 10.0 5.201519008904974
bond_coeff 2479 harmonic 10.0 4.875653802312057
bond_coeff 2480 harmonic 10.0 6.111178282459117
bond_coeff 2481 harmonic 10.0 3.79487812716033
bond_coeff 2482 harmonic 10.0 5.404932932053838
bond_coeff 2483 harmonic 10.0 5.094290922199084
bond_coeff 2484 harmonic 10.0 5.999891665688632
bond_coeff 2485 harmonic 10.0 5.922609222293816
bond_coeff 2486 harmonic 10.0 7.474744142778381
bond_coeff 2487 harmonic 10.0 6.631485504771908
bond_coeff 2488 harmonic 10.0 3.78689846708358
bond_coeff 2489 harmonic 10.0 5.4989180754035525
bond_coeff 2490 harmonic 10.0 4.968782547063214
bond_coeff 2491 harmonic 10.0 6.097917677371518
bond_coeff 2492 harmonic 10.0 5.080413369008467
bond_coeff 2493 harmonic 10.0 3.806481314810311
bond_coeff 2494 harmonic 10.0 5.348925125667779
bond_coeff 2495 harmonic 10.0 5.400129628073749
bond_coeff 2496 harmonic 10.0 5.960067113716086
bond_coeff 2497 harmonic 10.0 3.8489608987361805
bond_coeff 2498 harmonic 10.0 5.895667901094827
bond_coeff 2499 harmonic 10.0 5.350186912622774
bond_coeff 2500 harmonic 10.0 5.117079245038124
bond_coeff 2501 harmonic 10.0 3.8655659352803653
bond_coeff 2502 harmonic 10.0 5.496198686364967
bond_coeff 2503 harmonic 10.0 4.801916284151566
bond_coeff 2504 harmonic 10.0 6.934702589152616
bond_coeff 2505 harmonic 10.0 7.206316673585743
bond_coeff 2506 harmonic 10.0 7.244128657057376
bond_coeff 2507 harmonic 10.0 3.8396093551297494
bond_coeff 2508 harmonic 10.0 5.651707706525511
bond_coeff 2509 harmonic 10.0 7.154201562718223
bond_coeff 2510 harmonic 10.0 7.282547631152162
bond_coeff 2511 harmonic 10.0 6.710894128206766
bond_coeff 2512 harmonic 10.0 7.357859743159016
bond_coeff 2513 harmonic 10.0 6.632850066148058
bond_coeff 2514 harmonic 10.0 3.8267218346778167
bond_coeff 2515 harmonic 10.0 5.557265514621366
bond_coeff 2516 harmonic 10.0 3.82431693247304
bond_coeff 2517 harmonic 10.0 5.429521157523939
bond_coeff 2518 harmonic 10.0 3.825454221396474
bond_coeff 2519 harmonic 10.0 6.147885815465342
bond_coeff 2520 harmonic 10.0 3.8053383555210787
bond_coeff 2521 harmonic 10.0 7.325032423136422
bond_coeff 2522 harmonic 10.0 6.567868756301397
bond_coeff 2523 harmonic 10.0 6.182208343302587
bond_coeff 2524 harmonic 10.0 7.179178225953163
bond_coeff 2525 harmonic 10.0 4.7877865449495385
bond_coeff 2526 harmonic 10.0 3.86141165896619
bond_coeff 2527 harmonic 10.0 5.471617676702204
bond_coeff 2528 harmonic 10.0 6.559161531781334
bond_coeff 2529 harmonic 10.0 5.7029378393947
bond_coeff 2530 harmonic 10.0 5.8426791799653195
bond_coeff 2531 harmonic 10.0 6.353219656205828
bond_coeff 2532 harmonic 10.0 6.455826825434525
bond_coeff 2533 harmonic 10.0 3.8062448686336436
bond_coeff 2534 harmonic 10.0 6.970746014595561
bond_coeff 2535 harmonic 10.0 5.338108279156593
bond_coeff 2536 harmonic 10.0 5.950000000000002
bond_coeff 2537 harmonic 10.0 3.851934578883699
bond_coeff 2538 harmonic 10.0 6.75785468917467
bond_coeff 2539 harmonic 10.0 6.311679649665386
bond_coeff 2540 harmonic 10.0 4.336473221409318
bond_coeff 2541 harmonic 10.0 6.223463665837542
bond_coeff 2542 harmonic 10.0 3.8380463780418275
bond_coeff 2543 harmonic 10.0 6.448263332091827
bond_coeff 2544 harmonic 10.0 6.765981081853548
bond_coeff 2545 harmonic 10.0 5.645901168104159
bond_coeff 2546 harmonic 10.0 4.9681888047859
bond_coeff 2547 harmonic 10.0 6.017889995671238
bond_coeff 2548 harmonic 10.0 3.9161588323253596
bond_coeff 2549 harmonic 10.0 5.504915984826653
bond_coeff 2550 harmonic 10.0 5.677067905177815
bond_coeff 2551 harmonic 10.0 7.314383090869665
bond_coeff 2552 harmonic 10.0 6.332842963472253
bond_coeff 2553 harmonic 10.0 4.895794113318087
bond_coeff 2554 harmonic 10.0 6.938205819950852
bond_coeff 2555 harmonic 10.0 3.837890045324379
bond_coeff 2556 harmonic 10.0 5.475801311223771
bond_coeff 2557 harmonic 10.0 6.133009049398187
bond_coeff 2558 harmonic 10.0 7.225427323003122
bond_coeff 2559 harmonic 10.0 3.824264635194589
bond_coeff 2560 harmonic 10.0 5.840856101634426
bond_coeff 2561 harmonic 10.0 5.446815583439558
bond_coeff 2562 harmonic 10.0 6.2095813063361955
bond_coeff 2563 harmonic 10.0 6.744575598212241
bond_coeff 2564 harmonic 10.0 5.308351909962254
bond_coeff 2565 harmonic 10.0 6.231741329676639
bond_coeff 2566 harmonic 10.0 3.896228946045151
bond_coeff 2567 harmonic 10.0 5.450944872221698
bond_coeff 2568 harmonic 10.0 5.066448460213522
bond_coeff 2569 harmonic 10.0 6.015854054080766
bond_coeff 2570 harmonic 10.0 5.365100185457862
bond_coeff 2571 harmonic 10.0 4.079656848314567
bond_coeff 2572 harmonic 10.0 6.377170218835313
bond_coeff 2573 harmonic 10.0 3.843982310052953
bond_coeff 2574 harmonic 10.0 5.528408450901591
bond_coeff 2575 harmonic 10.0 4.930425945088316
bond_coeff 2576 harmonic 10.0 5.957692506331626
bond_coeff 2577 harmonic 10.0 3.825506502412461
bond_coeff 2578 harmonic 10.0 5.321249853182986
bond_coeff 2579 harmonic 10.0 4.896662128429935
bond_coeff 2580 harmonic 10.0 6.008144472297582
bond_coeff 2581 harmonic 10.0 6.748021932388781
bond_coeff 2582 harmonic 10.0 6.591464177252278
bond_coeff 2583 harmonic 10.0 3.835752859609185
bond_coeff 2584 harmonic 10.0 5.476148281410946
bond_coeff 2585 harmonic 10.0 5.035642957954826
bond_coeff 2586 harmonic 10.0 6.481195877305367
bond_coeff 2587 harmonic 10.0 6.2786702413807305
bond_coeff 2588 harmonic 10.0 6.75092586242806
bond_coeff 2589 harmonic 10.0 5.022957296254869
bond_coeff 2590 harmonic 10.0 7.32001366118944
bond_coeff 2591 harmonic 10.0 6.528912620030998
bond_coeff 2592 harmonic 10.0 6.368131594117699
bond_coeff 2593 harmonic 10.0 3.839505176451774
bond_coeff 2594 harmonic 10.0 5.433461143691008
bond_coeff 2595 harmonic 10.0 5.226939831297091
bond_coeff 2596 harmonic 10.0 6.422297096833806
bond_coeff 2597 harmonic 10.0 6.506227785744994
bond_coeff 2598 harmonic 10.0 3.831070346521976
bond_coeff 2599 harmonic 10.0 5.371415083569699
bond_coeff 2600 harmonic 10.0 5.064869198705925
bond_coeff 2601 harmonic 10.0 6.192850716753954
bond_coeff 2602 harmonic 10.0 3.8756934863324815
bond_coeff 2603 harmonic 10.0 5.643314628832951
bond_coeff 2604 harmonic 10.0 5.307664269714121
bond_coeff 2605 harmonic 10.0 6.144216793050192
bond_coeff 2606 harmonic 10.0 6.4832862037704215
bond_coeff 2607 harmonic 10.0 5.0374001230793715
bond_coeff 2608 harmonic 10.0 6.266179059043874
bond_coeff 2609 harmonic 10.0 3.8415361510729014
bond_coeff 2610 harmonic 10.0 5.4426556018179175
bond_coeff 2611 harmonic 10.0 4.957297650938462
bond_coeff 2612 harmonic 10.0 6.2521196405699095
bond_coeff 2613 harmonic 10.0 5.8546818871736965
bond_coeff 2614 harmonic 10.0 6.331998104863902
bond_coeff 2615 harmonic 10.0 3.837512214964275
bond_coeff 2616 harmonic 10.0 5.524907239040306
bond_coeff 2617 harmonic 10.0 5.4068290152362035
bond_coeff 2618 harmonic 10.0 5.972152040931321
bond_coeff 2619 harmonic 10.0 6.577111828150718
bond_coeff 2620 harmonic 10.0 3.872066631658076
bond_coeff 2621 harmonic 10.0 5.54497069424177
bond_coeff 2622 harmonic 10.0 4.770125784505071
bond_coeff 2623 harmonic 10.0 6.3511652474171925
bond_coeff 2624 harmonic 10.0 7.343956699218762
bond_coeff 2625 harmonic 10.0 3.822329132871735
bond_coeff 2626 harmonic 10.0 5.3826573362977514
bond_coeff 2627 harmonic 10.0 5.325598557908768
bond_coeff 2628 harmonic 10.0 6.199096708392284
bond_coeff 2629 harmonic 10.0 6.510552971906448
bond_coeff 2630 harmonic 10.0 7.27354109083051
bond_coeff 2631 harmonic 10.0 3.8059164467970215
bond_coeff 2632 harmonic 10.0 5.232876837839773
bond_coeff 2633 harmonic 10.0 4.73554643098344
bond_coeff 2634 harmonic 10.0 6.410873575418555
bond_coeff 2635 harmonic 10.0 3.8506882501703372
bond_coeff 2636 harmonic 10.0 5.724071977185481
bond_coeff 2637 harmonic 10.0 5.8449037631084995
bond_coeff 2638 harmonic 10.0 6.347747632034528
bond_coeff 2639 harmonic 10.0 6.85245941250293
bond_coeff 2640 harmonic 10.0 7.300698596709768
bond_coeff 2641 harmonic 10.0 3.810774199555806
bond_coeff 2642 harmonic 10.0 5.318091763029295
bond_coeff 2643 harmonic 10.0 4.994286735861297
bond_coeff 2644 harmonic 10.0 5.668491862920875
bond_coeff 2645 harmonic 10.0 6.631063263157712
bond_coeff 2646 harmonic 10.0 7.069130073778527
bond_coeff 2647 harmonic 10.0 7.268294160255215
bond_coeff 2648 harmonic 10.0 3.8870168510054075
bond_coeff 2649 harmonic 10.0 6.000241661799978
bond_coeff 2650 harmonic 10.0 5.861928010475737
bond_coeff 2651 harmonic 10.0 7.074468177891536
bond_coeff 2652 harmonic 10.0 3.8416923354167785
bond_coeff 2653 harmonic 10.0 5.5465574909127175
bond_coeff 2654 harmonic 10.0 5.409824396410658
bond_coeff 2655 harmonic 10.0 5.74251686980543
bond_coeff 2656 harmonic 10.0 6.884017722231708
bond_coeff 2657 harmonic 10.0 6.145331561437502
bond_coeff 2658 harmonic 10.0 7.100028168958213
bond_coeff 2659 harmonic 10.0 3.8025912217854874
bond_coeff 2660 harmonic 10.0 5.234997612224841
bond_coeff 2661 harmonic 10.0 4.279871493397888
bond_coeff 2662 harmonic 10.0 5.749486933631558
bond_coeff 2663 harmonic 10.0 7.498539857865665
bond_coeff 2664 harmonic 10.0 6.309302655603075
bond_coeff 2665 harmonic 10.0 7.429952893524965
bond_coeff 2666 harmonic 10.0 3.8052200987590545
bond_coeff 2667 harmonic 10.0 5.448614502788751
bond_coeff 2668 harmonic 10.0 5.65746409621838
bond_coeff 2669 harmonic 10.0 6.456663224917335
bond_coeff 2670 harmonic 10.0 5.777101349292746
bond_coeff 2671 harmonic 10.0 6.968651232483956
bond_coeff 2672 harmonic 10.0 3.8066389374354688
bond_coeff 2673 harmonic 10.0 5.575930415634667
bond_coeff 2674 harmonic 10.0 4.958568341769619
bond_coeff 2675 harmonic 10.0 6.2111512620447416
bond_coeff 2676 harmonic 10.0 5.347569541389806
bond_coeff 2677 harmonic 10.0 3.816949043411507
bond_coeff 2678 harmonic 10.0 5.404340847874061
bond_coeff 2679 harmonic 10.0 5.179237395601803
bond_coeff 2680 harmonic 10.0 6.419392494621283
bond_coeff 2681 harmonic 10.0 6.817257513105987
bond_coeff 2682 harmonic 10.0 5.371145129299706
bond_coeff 2683 harmonic 10.0 5.171344119278856
bond_coeff 2684 harmonic 10.0 7.419359810657525
bond_coeff 2685 harmonic 10.0 5.644909210961674
bond_coeff 2686 harmonic 10.0 3.83220563122597
bond_coeff 2687 harmonic 10.0 5.3356349200446545
bond_coeff 2688 harmonic 10.0 4.923829810218857
bond_coeff 2689 harmonic 10.0 5.961593746641907
bond_coeff 2690 harmonic 10.0 6.361611431076244
bond_coeff 2691 harmonic 10.0 6.192285523132798
bond_coeff 2692 harmonic 10.0 6.590242787636884
bond_coeff 2693 harmonic 10.0 3.8468428613604737
bond_coeff 2694 harmonic 10.0 5.4259653518982365
bond_coeff 2695 harmonic 10.0 5.095193813781779
bond_coeff 2696 harmonic 10.0 6.199790319035011
bond_coeff 2697 harmonic 10.0 3.791371783405056
bond_coeff 2698 harmonic 10.0 5.633719907840644
bond_coeff 2699 harmonic 10.0 5.298433730830279
bond_coeff 2700 harmonic 10.0 6.362436640156034
bond_coeff 2701 harmonic 10.0 5.2772435986980994
bond_coeff 2702 harmonic 10.0 6.9231929050113905
bond_coeff 2703 harmonic 10.0 7.292441292187422
bond_coeff 2704 harmonic 10.0 3.85415360358147
bond_coeff 2705 harmonic 10.0 5.336937323971512
bond_coeff 2706 harmonic 10.0 5.101636992182039
bond_coeff 2707 harmonic 10.0 6.111538267899497
bond_coeff 2708 harmonic 10.0 4.928336433321074
bond_coeff 2709 harmonic 10.0 6.875441803986124
bond_coeff 2710 harmonic 10.0 6.72798632578871
bond_coeff 2711 harmonic 10.0 5.531130083445856
bond_coeff 2712 harmonic 10.0 6.136529964075791
bond_coeff 2713 harmonic 10.0 3.8204973498224173
bond_coeff 2714 harmonic 10.0 5.617561748659296
bond_coeff 2715 harmonic 10.0 4.990110219223613
bond_coeff 2716 harmonic 10.0 5.724630992474528
bond_coeff 2717 harmonic 10.0 6.885419377205717
bond_coeff 2718 harmonic 10.0 3.83319709902842
bond_coeff 2719 harmonic 10.0 5.256367567056154
bond_coeff 2720 harmonic 10.0 7.429024162028277
bond_coeff 2721 harmonic 10.0 3.882087067544979
bond_coeff 2722 harmonic 10.0 5.490045537151776
bond_coeff 2723 harmonic 10.0 3.8067046116030654
bond_coeff 2724 harmonic 10.0 6.494720933188745
bond_coeff 2725 harmonic 10.0 3.777671240327832
bond_coeff 2726 harmonic 10.0 5.2640763672271955
bond_coeff 2727 harmonic 10.0 6.794357953478735
bond_coeff 2728 harmonic 10.0 3.871808363026247
bond_coeff 2729 harmonic 10.0 7.021089659020172
bond_coeff 2730 harmonic 10.0 5.424656671163627
bond_coeff 2731 harmonic 10.0 6.084324120228977
bond_coeff 2732 harmonic 10.0 3.8554117808607717
bond_coeff 2733 harmonic 10.0 6.662912276174736
bond_coeff 2734 harmonic 10.0 5.64129417775745
bond_coeff 2735 harmonic 10.0 4.145708624590027
bond_coeff 2736 harmonic 10.0 4.622812996434098
bond_coeff 2737 harmonic 10.0 6.132707395596176
bond_coeff 2738 harmonic 10.0 3.811640066952806
bond_coeff 2739 harmonic 10.0 6.97895407636416
bond_coeff 2740 harmonic 10.0 6.393700024242602
bond_coeff 2741 harmonic 10.0 7.32135233409785
bond_coeff 2742 harmonic 10.0 6.093480122229014
bond_coeff 2743 harmonic 10.0 4.275067250933033
bond_coeff 2744 harmonic 10.0 5.766463387553952
bond_coeff 2745 harmonic 10.0 6.45947366276852
bond_coeff 2746 harmonic 10.0 3.839739574502414
bond_coeff 2747 harmonic 10.0 5.476449579791621
bond_coeff 2748 harmonic 10.0 5.4971083307498985
bond_coeff 2749 harmonic 10.0 6.978610176818869
bond_coeff 2750 harmonic 10.0 6.594239910709957
bond_coeff 2751 harmonic 10.0 5.787650645987559
bond_coeff 2752 harmonic 10.0 6.3009443736633655
bond_coeff 2753 harmonic 10.0 4.9117613948562395
bond_coeff 2754 harmonic 10.0 3.89208170520609
bond_coeff 2755 harmonic 10.0 5.347242279904659
bond_coeff 2756 harmonic 10.0 5.161763264621882
bond_coeff 2757 harmonic 10.0 6.081817162657882
bond_coeff 2758 harmonic 10.0 6.764953806198534
bond_coeff 2759 harmonic 10.0 7.0324249018386285
bond_coeff 2760 harmonic 10.0 6.352495572607669
bond_coeff 2761 harmonic 10.0 4.989849697135173
bond_coeff 2762 harmonic 10.0 6.0864028785482045
bond_coeff 2763 harmonic 10.0 4.4794865777229464
bond_coeff 2764 harmonic 10.0 6.890493451125239
bond_coeff 2765 harmonic 10.0 3.745730903308467
bond_coeff 2766 harmonic 10.0 5.477709375277215
bond_coeff 2767 harmonic 10.0 4.758718314840675
bond_coeff 2768 harmonic 10.0 5.987002588942163
bond_coeff 2769 harmonic 10.0 7.229253073450938
bond_coeff 2770 harmonic 10.0 4.215886620866361
bond_coeff 2771 harmonic 10.0 6.770317570099652
bond_coeff 2772 harmonic 10.0 3.8369779775234316
bond_coeff 2773 harmonic 10.0 5.229502844439415
bond_coeff 2774 harmonic 10.0 4.792546296072686
bond_coeff 2775 harmonic 10.0 6.244341438454498
bond_coeff 2776 harmonic 10.0 3.7917937707633707
bond_coeff 2777 harmonic 10.0 5.2153331628957265
bond_coeff 2778 harmonic 10.0 4.8593209402137685
bond_coeff 2779 harmonic 10.0 6.279020624269373
bond_coeff 2780 harmonic 10.0 7.303410162383064
bond_coeff 2781 harmonic 10.0 3.8215965250141264
bond_coeff 2782 harmonic 10.0 5.455575130084824
bond_coeff 2783 harmonic 10.0 5.455840906771386
bond_coeff 2784 harmonic 10.0 6.318298821676608
bond_coeff 2785 harmonic 10.0 6.582484333441276
bond_coeff 2786 harmonic 10.0 6.003940372788538
bond_coeff 2787 harmonic 10.0 3.8317750455891963
bond_coeff 2788 harmonic 10.0 5.699842103076188
bond_coeff 2789 harmonic 10.0 5.42708945936954
bond_coeff 2790 harmonic 10.0 5.956391525076223
bond_coeff 2791 harmonic 10.0 6.782130933563589
bond_coeff 2792 harmonic 10.0 3.7936130535414363
bond_coeff 2793 harmonic 10.0 5.652963824402206
bond_coeff 2794 harmonic 10.0 5.550450432172141
bond_coeff 2795 harmonic 10.0 6.222845008514989
bond_coeff 2796 harmonic 10.0 3.8999871794660925
bond_coeff 2797 harmonic 10.0 5.827452273506816
bond_coeff 2798 harmonic 10.0 5.842747641307122
bond_coeff 2799 harmonic 10.0 4.851948062376599
bond_coeff 2800 harmonic 10.0 5.474988584462979
bond_coeff 2801 harmonic 10.0 6.878699004899109
bond_coeff 2802 harmonic 10.0 6.996248994997243
bond_coeff 2803 harmonic 10.0 3.75823096682468
bond_coeff 2804 harmonic 10.0 5.774824672663225
bond_coeff 2805 harmonic 10.0 7.098189910110882
bond_coeff 2806 harmonic 10.0 6.899630424885084
bond_coeff 2807 harmonic 10.0 5.23755668227085
bond_coeff 2808 harmonic 10.0 6.96629026096385
bond_coeff 2809 harmonic 10.0 3.841106611381655
bond_coeff 2810 harmonic 10.0 6.307424196928562
bond_coeff 2811 harmonic 10.0 7.153984903534535
bond_coeff 2812 harmonic 10.0 3.850051947701491
bond_coeff 2813 harmonic 10.0 5.569461374316214
bond_coeff 2814 harmonic 10.0 5.449522914898154
bond_coeff 2815 harmonic 10.0 6.108665975481074
bond_coeff 2816 harmonic 10.0 3.8439562952770596
bond_coeff 2817 harmonic 10.0 5.448137296361022
bond_coeff 2818 harmonic 10.0 4.769014573263547
bond_coeff 2819 harmonic 10.0 6.238886118531094
bond_coeff 2820 harmonic 10.0 3.824630701126577
bond_coeff 2821 harmonic 10.0 5.472138521638507
bond_coeff 2822 harmonic 10.0 5.236917031995067
bond_coeff 2823 harmonic 10.0 6.176026230514243
bond_coeff 2824 harmonic 10.0 6.61173199698837
bond_coeff 2825 harmonic 10.0 6.808002643947781
bond_coeff 2826 harmonic 10.0 7.047425061680323
bond_coeff 2827 harmonic 10.0 3.8326100766970708
bond_coeff 2828 harmonic 10.0 5.177847042932023
bond_coeff 2829 harmonic 10.0 4.861902919639596
bond_coeff 2830 harmonic 10.0 5.512993742060665
bond_coeff 2831 harmonic 10.0 6.69215212020768
bond_coeff 2832 harmonic 10.0 3.8753838519558057
bond_coeff 2833 harmonic 10.0 5.878384131715101
bond_coeff 2834 harmonic 10.0 5.538646043935271
bond_coeff 2835 harmonic 10.0 4.216681159395383
bond_coeff 2836 harmonic 10.0 3.809514404750303
bond_coeff 2837 harmonic 10.0 5.61132782859814
bond_coeff 2838 harmonic 10.0 5.38581470160272
bond_coeff 2839 harmonic 10.0 7.141211381831528
bond_coeff 2840 harmonic 10.0 3.872389443224952
bond_coeff 2841 harmonic 10.0 6.276352443896078
bond_coeff 2842 harmonic 10.0 6.45691876981583
bond_coeff 2843 harmonic 10.0 6.943838995829309
bond_coeff 2844 harmonic 10.0 3.8494934731728097
bond_coeff 2845 harmonic 10.0 6.4246867627924
bond_coeff 2846 harmonic 10.0 6.02072254800036
bond_coeff 2847 harmonic 10.0 3.8071248994483806
bond_coeff 2848 harmonic 10.0 5.765353415012814
bond_coeff 2849 harmonic 10.0 3.7879413934220314
bond_coeff 2850 harmonic 10.0 6.328198795866001
bond_coeff 2851 harmonic 10.0 3.7068585082249834
bond_coeff 2852 harmonic 10.0 5.856526274166284
bond_coeff 2853 harmonic 10.0 3.8018548104839565
bond_coeff 2854 harmonic 10.0 5.999241618738169
bond_coeff 2855 harmonic 10.0 3.806757150121357
bond_coeff 2856 harmonic 10.0 6.523220063741532
bond_coeff 2857 harmonic 10.0 5.55271104956849
bond_coeff 2858 harmonic 10.0 6.60953099697702
bond_coeff 2859 harmonic 10.0 3.8453868465994567
bond_coeff 2860 harmonic 10.0 5.3878010356730925
bond_coeff 2861 harmonic 10.0 3.814629733014708
bond_coeff 2862 harmonic 10.0 5.569928186251585
bond_coeff 2863 harmonic 10.0 3.822682304351235
bond_coeff 2864 harmonic 10.0 6.4219078162178596
bond_coeff 2865 harmonic 10.0 3.8440343390765963
bond_coeff 2866 harmonic 10.0 6.926954597801264
bond_coeff 2867 harmonic 10.0 3.8273881433687897
bond_coeff 2868 harmonic 10.0 6.147308354068491
bond_coeff 2869 harmonic 10.0 3.767558891377814
bond_coeff 2870 harmonic 10.0 6.631666457233806
bond_coeff 2871 harmonic 10.0 3.8086874379502267
bond_coeff 2872 harmonic 10.0 7.221045630654864
bond_coeff 2873 harmonic 10.0 3.863599358111539
bond_coeff 2874 harmonic 10.0 6.638252782170929
bond_coeff 2875 harmonic 10.0 3.7540644640176333
bond_coeff 2876 harmonic 10.0 6.239679478947638
bond_coeff 2877 harmonic 10.0 3.8236370120606455
bond_coeff 2878 harmonic 10.0 3.8309398324693182
bond_coeff 2879 harmonic 10.0 5.300471677124594
bond_coeff 2880 harmonic 10.0 5.325617335107717
bond_coeff 2881 harmonic 10.0 3.8064550437382145
bond_coeff 2882 harmonic 10.0 5.357191428351247
bond_coeff 2883 harmonic 10.0 3.8019468696971503
bond_coeff 2884 harmonic 10.0 6.007844871499248
bond_coeff 2885 harmonic 10.0 3.816464332336924
bond_coeff 2886 harmonic 10.0 6.660067567224833
bond_coeff 2887 harmonic 10.0 3.8087924595598666
bond_coeff 2888 harmonic 10.0 6.303570416835233
bond_coeff 2889 harmonic 10.0 3.7441821536885773
bond_coeff 2890 harmonic 10.0 6.99744238990218
bond_coeff 2891 harmonic 10.0 3.8570584646852266
bond_coeff 2892 harmonic 10.0 6.990228894678608
bond_coeff 2893 harmonic 10.0 3.8179575691722833
bond_coeff 2894 harmonic 10.0 5.348597947125959
bond_coeff 2895 harmonic 10.0 6.894715367584069
bond_coeff 2896 harmonic 10.0 3.8516879416692014
bond_coeff 2897 harmonic 10.0 5.95444371877003
bond_coeff 2898 harmonic 10.0 5.680721785125554
bond_coeff 2899 harmonic 10.0 6.022665522839543
bond_coeff 2900 harmonic 10.0 6.059199617111158
bond_coeff 2901 harmonic 10.0 3.8794973901267142
bond_coeff 2902 harmonic 10.0 5.524861989226508
bond_coeff 2903 harmonic 10.0 5.015077267600161
bond_coeff 2904 harmonic 10.0 6.136326262512443
bond_coeff 2905 harmonic 10.0 6.6317569316132055
bond_coeff 2906 harmonic 10.0 6.835524851831053
bond_coeff 2907 harmonic 10.0 3.7775388813352886
bond_coeff 2908 harmonic 10.0 5.532476841343294
bond_coeff 2909 harmonic 10.0 5.311628752087249
bond_coeff 2910 harmonic 10.0 6.217724664216003
bond_coeff 2911 harmonic 10.0 3.8543611662634807
bond_coeff 2912 harmonic 10.0 5.508375441089682
bond_coeff 2913 harmonic 10.0 5.029999999999999
bond_coeff 2914 harmonic 10.0 6.484018815518664
bond_coeff 2915 harmonic 10.0 3.9099488487702745
bond_coeff 2916 harmonic 10.0 5.512839558702935
bond_coeff 2917 harmonic 10.0 5.320507494591098
bond_coeff 2918 harmonic 10.0 6.509485386726059
bond_coeff 2919 harmonic 10.0 3.832636168487693
bond_coeff 2920 harmonic 10.0 5.3426678728889785
bond_coeff 2921 harmonic 10.0 4.841993391156173
bond_coeff 2922 harmonic 10.0 6.202926728569353
bond_coeff 2923 harmonic 10.0 3.850688250170343
bond_coeff 2924 harmonic 10.0 5.418763696637824
bond_coeff 2925 harmonic 10.0 5.006915217976033
bond_coeff 2926 harmonic 10.0 6.919790459255232
bond_coeff 2927 harmonic 10.0 3.841041525419905
bond_coeff 2928 harmonic 10.0 5.294997639281806
bond_coeff 2929 harmonic 10.0 5.32801088587475
bond_coeff 2930 harmonic 10.0 6.934414178573408
bond_coeff 2931 harmonic 10.0 3.849493473172798
bond_coeff 2932 harmonic 10.0 5.301518650349165
bond_coeff 2933 harmonic 10.0 5.3557912580682165
bond_coeff 2934 harmonic 10.0 5.773915482581985
bond_coeff 2935 harmonic 10.0 6.616781695053868
bond_coeff 2936 harmonic 10.0 3.8209292063580405
bond_coeff 2937 harmonic 10.0 5.819733670882185
bond_coeff 2938 harmonic 10.0 5.664883052632245
bond_coeff 2939 harmonic 10.0 4.191300514160262
bond_coeff 2940 harmonic 10.0 7.386995329631679
bond_coeff 2941 harmonic 10.0 3.8123745881012407
bond_coeff 2942 harmonic 10.0 5.991610801779458
bond_coeff 2943 harmonic 10.0 5.813338111618848
bond_coeff 2944 harmonic 10.0 3.8795360547364446
bond_coeff 2945 harmonic 10.0 6.141571460139495
bond_coeff 2946 harmonic 10.0 3.794166575151912
bond_coeff 2947 harmonic 10.0 5.749504326461541
bond_coeff 2948 harmonic 10.0 5.568527633046258
bond_coeff 2949 harmonic 10.0 3.8575769596989264
bond_coeff 2950 harmonic 10.0 5.640212761944342
bond_coeff 2951 harmonic 10.0 3.771272994626615
bond_coeff 2952 harmonic 10.0 6.73030459934764
bond_coeff 2953 harmonic 10.0 3.8048784474671504
bond_coeff 2954 harmonic 10.0 6.920505761864523
bond_coeff 2955 harmonic 10.0 3.8411586793570462
bond_coeff 2956 harmonic 10.0 6.931767451379193
bond_coeff 2957 harmonic 10.0 3.802223033963151
bond_coeff 2958 harmonic 10.0 6.866585760041156
bond_coeff 2959 harmonic 10.0 6.3310820560153855
bond_coeff 2960 harmonic 10.0 6.526208700309862
bond_coeff 2961 harmonic 10.0 3.8426162962231865
bond_coeff 2962 harmonic 10.0 5.22691113373855
bond_coeff 2963 harmonic 10.0 5.184910799618446
bond_coeff 2964 harmonic 10.0 5.888064198019601
bond_coeff 2965 harmonic 10.0 3.8036166999318013
bond_coeff 2966 harmonic 10.0 5.390269009984567
bond_coeff 2967 harmonic 10.0 4.653063506981205
bond_coeff 2968 harmonic 10.0 5.790276331920627
bond_coeff 2969 harmonic 10.0 3.8532713374481973
bond_coeff 2970 harmonic 10.0 5.567198577381635
bond_coeff 2971 harmonic 10.0 5.316295702836713
bond_coeff 2972 harmonic 10.0 6.871258982166203
bond_coeff 2973 harmonic 10.0 3.793731672113893
bond_coeff 2974 harmonic 10.0 5.239646934670312
bond_coeff 2975 harmonic 10.0 5.024211380903465
bond_coeff 2976 harmonic 10.0 6.668777999004023
bond_coeff 2977 harmonic 10.0 3.8059295842146077
bond_coeff 2978 harmonic 10.0 5.281467599067511
bond_coeff 2979 harmonic 10.0 5.30869098742806
bond_coeff 2980 harmonic 10.0 6.062062355337484
bond_coeff 2981 harmonic 10.0 3.840937385587012
bond_coeff 2982 harmonic 10.0 5.703095650609406
bond_coeff 2983 harmonic 10.0 5.066724780368463
bond_coeff 2984 harmonic 10.0 6.180380247201602
bond_coeff 2985 harmonic 10.0 3.8174991814013626
bond_coeff 2986 harmonic 10.0 5.411367664463408
bond_coeff 2987 harmonic 10.0 5.068204810384046
bond_coeff 2988 harmonic 10.0 6.3084863477699695
bond_coeff 2989 harmonic 10.0 3.8403124872853853
bond_coeff 2990 harmonic 10.0 5.246541718122513
bond_coeff 2991 harmonic 10.0 4.956662183364927
bond_coeff 2992 harmonic 10.0 6.058481657973376
bond_coeff 2993 harmonic 10.0 3.8427854480832013
bond_coeff 2994 harmonic 10.0 5.666189195570517
bond_coeff 2995 harmonic 10.0 5.375388358063063
bond_coeff 2996 harmonic 10.0 6.5595274220022795
bond_coeff 2997 harmonic 10.0 3.849064821485865
bond_coeff 2998 harmonic 10.0 5.585212619050417
bond_coeff 2999 harmonic 10.0 5.362126443865353
bond_coeff 3000 harmonic 10.0 6.183275830819779
bond_coeff 3001 harmonic 10.0 3.87201497930987
bond_coeff 3002 harmonic 10.0 5.362583332685848
bond_coeff 3003 harmonic 10.0 4.808242922315808
bond_coeff 3004 harmonic 10.0 6.101753846231439
bond_coeff 3005 harmonic 10.0 3.7938634661779833
bond_coeff 3006 harmonic 10.0 5.549639627939819
bond_coeff 3007 harmonic 10.0 5.94307159640536
bond_coeff 3008 harmonic 10.0 6.515136222674098
bond_coeff 3009 harmonic 10.0 3.8646733367776296
bond_coeff 3010 harmonic 10.0 6.080534515978028
bond_coeff 3011 harmonic 10.0 5.671014018674266
bond_coeff 3012 harmonic 10.0 7.434036588556736
bond_coeff 3013 harmonic 10.0 3.852038421407574
bond_coeff 3014 harmonic 10.0 5.484168122878797
bond_coeff 3015 harmonic 10.0 5.94308000955734
bond_coeff 3016 harmonic 10.0 7.148964960048431
bond_coeff 3017 harmonic 10.0 3.854880024073374
bond_coeff 3018 harmonic 10.0 5.376169640180631
bond_coeff 3019 harmonic 10.0 4.935048125398575
bond_coeff 3020 harmonic 10.0 6.542010394366541
bond_coeff 3021 harmonic 10.0 3.8283286170338116
bond_coeff 3022 harmonic 10.0 5.464082722653457
bond_coeff 3023 harmonic 10.0 5.436377470338132
bond_coeff 3024 harmonic 10.0 5.747590799630738
bond_coeff 3025 harmonic 10.0 3.8045630498126775
bond_coeff 3026 harmonic 10.0 5.4171856161663765
bond_coeff 3027 harmonic 10.0 4.834056267773459
bond_coeff 3028 harmonic 10.0 5.095046614114515
bond_coeff 3029 harmonic 10.0 3.8419786568902117
bond_coeff 3030 harmonic 10.0 5.837927714523354
bond_coeff 3031 harmonic 10.0 5.794514647492041
bond_coeff 3032 harmonic 10.0 6.27000797447658
bond_coeff 3033 harmonic 10.0 7.140602215499759
bond_coeff 3034 harmonic 10.0 3.867634936236871
bond_coeff 3035 harmonic 10.0 5.852623343424716
bond_coeff 3036 harmonic 10.0 5.19936534588598
bond_coeff 3037 harmonic 10.0 6.257195857570706
bond_coeff 3038 harmonic 10.0 6.591031785691835
bond_coeff 3039 harmonic 10.0 5.471115060022057
bond_coeff 3040 harmonic 10.0 6.239559279308112
bond_coeff 3041 harmonic 10.0 7.030888990732265
bond_coeff 3042 harmonic 10.0 3.809330649864879
bond_coeff 3043 harmonic 10.0 5.083404371088348
bond_coeff 3044 harmonic 10.0 4.830124222005078
bond_coeff 3045 harmonic 10.0 6.413782035585563
bond_coeff 3046 harmonic 10.0 7.433471598116199
bond_coeff 3047 harmonic 10.0 3.7958661725619414
bond_coeff 3048 harmonic 10.0 5.537661961514094
bond_coeff 3049 harmonic 10.0 5.400907331180575
bond_coeff 3050 harmonic 10.0 6.817462871186028
bond_coeff 3051 harmonic 10.0 3.831696752092996
bond_coeff 3052 harmonic 10.0 5.4250898610069145
bond_coeff 3053 harmonic 10.0 5.308521451402441
bond_coeff 3054 harmonic 10.0 6.066086052802075
bond_coeff 3055 harmonic 10.0 5.897092503937865
bond_coeff 3056 harmonic 10.0 3.808766204428945
bond_coeff 3057 harmonic 10.0 5.4787863619600925
bond_coeff 3058 harmonic 10.0 4.801051968058656
bond_coeff 3059 harmonic 10.0 6.485992599440736
bond_coeff 3060 harmonic 10.0 6.71872755810205
bond_coeff 3061 harmonic 10.0 5.177972576211665
bond_coeff 3062 harmonic 10.0 6.09829484364277
bond_coeff 3063 harmonic 10.0 6.132585099287256
bond_coeff 3064 harmonic 10.0 3.8570455014168554
bond_coeff 3065 harmonic 10.0 5.411931263421596
bond_coeff 3066 harmonic 10.0 5.584424768944444
bond_coeff 3067 harmonic 10.0 6.493704643729966
bond_coeff 3068 harmonic 10.0 7.172210259048462
bond_coeff 3069 harmonic 10.0 3.789063208762814
bond_coeff 3070 harmonic 10.0 5.390306113756442
bond_coeff 3071 harmonic 10.0 4.877806884246249
bond_coeff 3072 harmonic 10.0 6.16766568484382
bond_coeff 3073 harmonic 10.0 3.81056426267817
bond_coeff 3074 harmonic 10.0 5.5463140913583375
bond_coeff 3075 harmonic 10.0 5.69835941302407
bond_coeff 3076 harmonic 10.0 6.599545438892005
bond_coeff 3077 harmonic 10.0 6.148048470856425
bond_coeff 3078 harmonic 10.0 3.777883005070437
bond_coeff 3079 harmonic 10.0 5.610891194810315
bond_coeff 3080 harmonic 10.0 5.16751390902821
bond_coeff 3081 harmonic 10.0 5.918521774902918
bond_coeff 3082 harmonic 10.0 4.762782800002535
bond_coeff 3083 harmonic 10.0 5.743152444433283
bond_coeff 3084 harmonic 10.0 6.766173216819087
bond_coeff 3085 harmonic 10.0 6.06331592447565
bond_coeff 3086 harmonic 10.0 7.210221910593319
bond_coeff 3087 harmonic 10.0 3.7783726655797114
bond_coeff 3088 harmonic 10.0 5.331303780502482
bond_coeff 3089 harmonic 10.0 4.8936387279814575
bond_coeff 3090 harmonic 10.0 5.660362179224926
bond_coeff 3091 harmonic 10.0 6.576883760566236
bond_coeff 3092 harmonic 10.0 3.7989077377583316
bond_coeff 3093 harmonic 10.0 5.525160631149104
bond_coeff 3094 harmonic 10.0 3.872221584568724
bond_coeff 3095 harmonic 10.0 5.800732712339024
bond_coeff 3096 harmonic 10.0 3.7374322736338748
bond_coeff 3097 harmonic 10.0 6.895600046406396
bond_coeff 3098 harmonic 10.0 3.7924266637602666
bond_coeff 3099 harmonic 10.0 5.4607142389984
bond_coeff 3100 harmonic 10.0 7.434305616532049
bond_coeff 3101 harmonic 10.0 3.8278584090846417
bond_coeff 3102 harmonic 10.0 6.382742357325734
bond_coeff 3103 harmonic 10.0 3.850986886500654
bond_coeff 3104 harmonic 10.0 6.639322254567857
bond_coeff 3105 harmonic 10.0 3.822473021487531
bond_coeff 3106 harmonic 10.0 7.123468256404317
bond_coeff 3107 harmonic 10.0 5.8688073745864315
bond_coeff 3108 harmonic 10.0 3.800565747359194
bond_coeff 3109 harmonic 10.0 5.198509401741998
bond_coeff 3110 harmonic 10.0 5.357891376278545
bond_coeff 3111 harmonic 10.0 7.056883164683961
bond_coeff 3112 harmonic 10.0 3.8030251116709803
bond_coeff 3113 harmonic 10.0 5.3983793864455345
bond_coeff 3114 harmonic 10.0 5.19964421859804
bond_coeff 3115 harmonic 10.0 6.214869266525253
bond_coeff 3116 harmonic 10.0 3.8596502432215263
bond_coeff 3117 harmonic 10.0 5.4195664033204745
bond_coeff 3118 harmonic 10.0 4.91776371941558
bond_coeff 3119 harmonic 10.0 5.962122105425223
bond_coeff 3120 harmonic 10.0 3.881056557176151
bond_coeff 3121 harmonic 10.0 5.579614682036744
bond_coeff 3122 harmonic 10.0 5.222317493220798
bond_coeff 3123 harmonic 10.0 5.945199744331558
bond_coeff 3124 harmonic 10.0 3.862033143306763
bond_coeff 3125 harmonic 10.0 5.472677589626485
bond_coeff 3126 harmonic 10.0 4.844357542543698
bond_coeff 3127 harmonic 10.0 6.2893719877265974
bond_coeff 3128 harmonic 10.0 3.8022230339631626
bond_coeff 3129 harmonic 10.0 5.38858979696914
bond_coeff 3130 harmonic 10.0 5.559091652419484
bond_coeff 3131 harmonic 10.0 6.482044430578966
bond_coeff 3132 harmonic 10.0 6.33973974229225
bond_coeff 3133 harmonic 10.0 3.79915780140809
bond_coeff 3134 harmonic 10.0 5.668174309246331
bond_coeff 3135 harmonic 10.0 5.21865883153898
bond_coeff 3136 harmonic 10.0 6.538157232737668
bond_coeff 3137 harmonic 10.0 3.803603554525631
bond_coeff 3138 harmonic 10.0 5.401999629766722
bond_coeff 3139 harmonic 10.0 5.286917816648922
bond_coeff 3140 harmonic 10.0 6.061856151378063
bond_coeff 3141 harmonic 10.0 3.792545319439187
bond_coeff 3142 harmonic 10.0 5.318543033576016
bond_coeff 3143 harmonic 10.0 4.646923713598062
bond_coeff 3144 harmonic 10.0 5.73680224515365
bond_coeff 3145 harmonic 10.0 6.699328324541204
bond_coeff 3146 harmonic 10.0 7.372082473765468
bond_coeff 3147 harmonic 10.0 7.391292173903019
bond_coeff 3148 harmonic 10.0 3.834514310835208
bond_coeff 3149 harmonic 10.0 5.4765408790586125
bond_coeff 3150 harmonic 10.0 5.959068719187601
bond_coeff 3151 harmonic 10.0 5.534618324690533
bond_coeff 3152 harmonic 10.0 3.791437722025768
bond_coeff 3153 harmonic 10.0 6.171531414487006
bond_coeff 3154 harmonic 10.0 3.784838173555109
bond_coeff 3155 harmonic 10.0 6.844625628914983
bond_coeff 3156 harmonic 10.0 3.8592356756228194
bond_coeff 3157 harmonic 10.0 6.251415839631854
bond_coeff 3158 harmonic 10.0 6.188675140932828
bond_coeff 3159 harmonic 10.0 5.226863304124172
bond_coeff 3160 harmonic 10.0 3.8320882035777983
bond_coeff 3161 harmonic 10.0 5.438336142608329
bond_coeff 3162 harmonic 10.0 5.770771178967331
bond_coeff 3163 harmonic 10.0 5.912748937676947
bond_coeff 3164 harmonic 10.0 3.8741450669792963
bond_coeff 3165 harmonic 10.0 5.398231191788673
bond_coeff 3166 harmonic 10.0 4.666358323146651
bond_coeff 3167 harmonic 10.0 6.952963396998427
bond_coeff 3168 harmonic 10.0 3.7794311741319055
bond_coeff 3169 harmonic 10.0 5.827048995846859
bond_coeff 3170 harmonic 10.0 7.115679869134065
bond_coeff 3171 harmonic 10.0 3.845256818471283
bond_coeff 3172 harmonic 10.0 5.591064299397737
bond_coeff 3173 harmonic 10.0 5.3919291538372365
bond_coeff 3174 harmonic 10.0 6.358883549806532
bond_coeff 3175 harmonic 10.0 3.82261690468716
bond_coeff 3176 harmonic 10.0 5.701236707943287
bond_coeff 3177 harmonic 10.0 5.500636326826212
bond_coeff 3178 harmonic 10.0 6.433272883999267
bond_coeff 3179 harmonic 10.0 3.781124171460124
bond_coeff 3180 harmonic 10.0 5.431150890925445
bond_coeff 3181 harmonic 10.0 5.175577262489689
bond_coeff 3182 harmonic 10.0 5.946023881553135
bond_coeff 3183 harmonic 10.0 3.832244772975777
bond_coeff 3184 harmonic 10.0 5.520842327036723
bond_coeff 3185 harmonic 10.0 5.026579353795197
bond_coeff 3186 harmonic 10.0 6.313208376095321
bond_coeff 3187 harmonic 10.0 3.770782412179215
bond_coeff 3188 harmonic 10.0 5.456207474061086
bond_coeff 3189 harmonic 10.0 5.606754854637387
bond_coeff 3190 harmonic 10.0 6.174795543173865
bond_coeff 3191 harmonic 10.0 3.8289685295128804
bond_coeff 3192 harmonic 10.0 5.7435616127974205
bond_coeff 3193 harmonic 10.0 5.048098651967871
bond_coeff 3194 harmonic 10.0 6.075524668701448
bond_coeff 3195 harmonic 10.0 3.847635637635151
bond_coeff 3196 harmonic 10.0 5.378001487541618
bond_coeff 3197 harmonic 10.0 5.182605522321747
bond_coeff 3198 harmonic 10.0 6.460797164437206
bond_coeff 3199 harmonic 10.0 3.848402265876065
bond_coeff 3200 harmonic 10.0 5.49557094395115
bond_coeff 3201 harmonic 10.0 5.140622530394547
bond_coeff 3202 harmonic 10.0 6.243716841753794
bond_coeff 3203 harmonic 10.0 3.823833155356022
bond_coeff 3204 harmonic 10.0 5.426509006718774
bond_coeff 3205 harmonic 10.0 4.925180199749048
bond_coeff 3206 harmonic 10.0 6.438400422465204
bond_coeff 3207 harmonic 10.0 3.846153923076924
bond_coeff 3208 harmonic 10.0 5.32726008375789
bond_coeff 3209 harmonic 10.0 5.344801212393228
bond_coeff 3210 harmonic 10.0 5.999574984946857
bond_coeff 3211 harmonic 10.0 3.8302480337440308
bond_coeff 3212 harmonic 10.0 5.6707671438704
bond_coeff 3213 harmonic 10.0 4.86563459376061
bond_coeff 3214 harmonic 10.0 5.796671458690756
bond_coeff 3215 harmonic 10.0 3.8547114029457625
bond_coeff 3216 harmonic 10.0 5.343369723311305
bond_coeff 3217 harmonic 10.0 4.959858868959887
bond_coeff 3218 harmonic 10.0 6.104137940774278
bond_coeff 3219 harmonic 10.0 3.8327013971870985
bond_coeff 3220 harmonic 10.0 5.366842647218191
bond_coeff 3221 harmonic 10.0 5.040446408801497
bond_coeff 3222 harmonic 10.0 6.10295010630105
bond_coeff 3223 harmonic 10.0 3.7863702935660988
bond_coeff 3224 harmonic 10.0 5.505678886386291
bond_coeff 3225 harmonic 10.0 5.3409736940000005
bond_coeff 3226 harmonic 10.0 7.4709637932464865
bond_coeff 3227 harmonic 10.0 3.736321720623106
bond_coeff 3228 harmonic 10.0 5.630150974885133
bond_coeff 3229 harmonic 10.0 6.585840872660071
bond_coeff 3230 harmonic 10.0 3.8974478829100447
bond_coeff 3231 harmonic 10.0 5.900135591662276
bond_coeff 3232 harmonic 10.0 3.807689588188613
bond_coeff 3233 harmonic 10.0 7.185415784768472
bond_coeff 3234 harmonic 10.0 3.8483632884643284
bond_coeff 3235 harmonic 10.0 7.074779148496455
bond_coeff 3236 harmonic 10.0 3.7915432214337437

pair_coeff 1 1 0.141964 5.04 1.0 15.120000000000001 0.0
pair_coeff 1 2 0.021633 5.8 1.0 17.4 0.0
pair_coeff 1 3 0.022985 5.359999999999999 1.0 16.08 0.0
pair_coeff 1 4 0.004056 5.3100000000000005 1.0 15.930000000000001 0.0
pair_coeff 1 5 0.256888 5.26 1.0 15.78 0.0
pair_coeff 1 6 0.029745 5.529999999999999 1.0 16.589999999999996 0.0
pair_coeff 1 7 0.021633 5.48 -1.0 16.44 0.0
pair_coeff 1 8 0.086531 4.77 1.0 14.309999999999999 0.0
pair_coeff 1 9 0.100051 5.5600000000000005 1.0 16.68 0.0
pair_coeff 1 10 0.393444 5.609999999999999 1.0 16.83 0.0
pair_coeff 1 11 0.438061 5.609999999999999 1.0 16.83 0.0
pair_coeff 1 12 0.048673 5.7 -1.0 17.1 0.0
pair_coeff 1 13 0.306913 5.609999999999999 1.0 16.83 0.0
pair_coeff 1 14 0.424541 5.7 1.0 17.1 0.0
pair_coeff 1 15 0.048673 5.3 1.0 15.899999999999999 0.0
pair_coeff 1 16 0.045969 5.109999999999999 1.0 15.329999999999998 0.0
pair_coeff 1 17 0.087883 5.33 1.0 15.99 0.0
pair_coeff 1 18 0.290689 5.91 1.0 17.73 0.0
pair_coeff 1 19 0.228495 5.75 1.0 17.25 0.0
pair_coeff 1 20 0.320433 5.45 1.0 16.35 0.0
pair_coeff 1 21 0.042429 5.04 1.0 15.120000000000001 0.0
pair_coeff 1 22 0.041486 5.8 -1.0 17.4 0.0
pair_coeff 1 23 0.040543 5.359999999999999 -1.0 16.08 0.0
pair_coeff 1 24 0.053744 5.3100000000000005 -1.0 15.930000000000001 0.0
pair_coeff 1 25 0.122573 5.26 1.0 15.78 0.0
pair_coeff 1 26 0.035829 5.529999999999999 -1.0 16.589999999999996 0.0
pair_coeff 1 27 0.071658 5.48 -1.0 16.44 0.0
pair_coeff 1 28 0.003771 4.77 1.0 14.309999999999999 0.0
pair_coeff 1 29 0.0132 5.5600000000000005 1.0 16.68 0.0
pair_coeff 1 30 0.217803 5.609999999999999 1.0 16.83 0.0
pair_coeff 1 31 0.248918 5.609999999999999 1.0 16.83 0.0
pair_coeff 1 32 0.090516 5.7 -1.0 17.1 0.0
pair_coeff 1 33 0.157459 5.609999999999999 1.0 16.83 0.0
pair_coeff 1 34 0.239489 5.7 1.0 17.1 0.0
pair_coeff 1 35 0.022629 5.3 -1.0 15.899999999999999 0.0
pair_coeff 1 36 0.024515 5.109999999999999 -1.0 15.329999999999998 0.0
pair_coeff 1 37 0.004714 5.33 1.0 15.99 0.0
pair_coeff 1 38 0.146145 5.91 1.0 17.73 0.0
pair_coeff 1 39 0.102773 5.75 1.0 17.25 0.0
pair_coeff 1 40 0.166888 5.45 1.0 16.35 0.0
pair_coeff 2 2 0.016224 6.56 -1.0 19.68 $Q
pair_coeff 2 2 0.016224 6.56 -1.0 19.68 28
pair_coeff 2 3 0.004056 6.119999999999999 -1.0 18.36 0.0
pair_coeff 2 4 0.083826 6.07 1.0 18.21 $Q
pair_coeff 2 4 0.083826 6.07 1.0 18.21 28
pair_coeff 2 5 0.121684 6.02 1.0 18.06 0.0
pair_coeff 2 6 0.017577 6.289999999999999 1.0 18.869999999999997 0.0
pair_coeff 2 7 0.081122 6.24 1.0 18.72 $Q
pair_coeff 2 7 0.081122 6.24 1.0 18.72 28
pair_coeff 2 8 0.00676 5.529999999999999 1.0 16.589999999999996 0.0
pair_coeff 2 9 0.06625 6.32 1.0 18.96 $Q
pair_coeff 2 9 0.06625 6.32 1.0 18.96 28
pair_coeff 2 10 0.265 6.369999999999999 1.0 19.11 0.0
pair_coeff 2 11 0.319081 6.369999999999999 1.0 19.11 0.0
pair_coeff 2 12 0.14602 6.46 -1.0 19.38 $Q
pair_coeff 2 12 0.14602 6.46 -1.0 19.38 28
pair_coeff 2 13 0.196046 6.369999999999999 1.0 19.11 0.0
pair_coeff 2 14 0.312321 6.46 1.0 19.38 0.0
pair_coeff 2 15 0.004056 6.06 1.0 18.18 0.0
pair_coeff 2 16 0.00676 5.869999999999999 -1.0 17.61 0.0
pair_coeff 2 17 0.031097 6.09 1.0 18.27 0.0
pair_coeff 2 18 0.235255 6.67 1.0 20.009999999999998 0.0
pair_coeff 2 19 0.201454 6.51 1.0 19.53 0.0
pair_coeff 2 20 0.189286 6.21 1.0 18.63 0.0
pair_coeff 2 21 0.041486 5.8 -1.0 17.4 0.0
pair_coeff 2 22 0.067887 6.56 -1.0 19.68 $Q
pair_coeff 2 22 0.067887 6.56 -1.0 19.68 28
pair_coeff 2 23 0.059401 6.119999999999999 -1.0 18.36 0.0
pair_coeff 2 24 0.001886 6.07 1.0 18.21 $Q
pair_coeff 2 24 0.001886 6.07 1.0 18.21 28
pair_coeff 2 25 0.028286 6.02 1.0 18.06 0.0
pair_coeff 2 26 0.044315 6.289999999999999 -1.0 18.869999999999997 0.0
pair_coeff 2 27 0.002 6.24 -1.0 18.72 $Q
pair_coeff 2 27 0.002 6.24 -1.0 18.72 28
pair_coeff 2 28 0.051858 5.529999999999999 -1.0 16.589999999999996 0.0
pair_coeff 2 29 0.010372 6.32 -1.0 18.96 $Q
pair_coeff 2 29 0.010372 6.32 -1.0 18.96 28
pair_coeff 2 30 0.12823 6.369999999999999 1.0 19.11 0.0
pair_coeff 2 31 0.165945 6.369999999999999 1.0 19.11 0.0
pair_coeff 2 32 0.158402 6.46 -1.0 19.38 $Q
pair_coeff 2 32 0.158402 6.46 -1.0 19.38 28
pair_coeff 2 33 0.080144 6.369999999999999 1.0 19.11 0.0
pair_coeff 2 34 0.161231 6.46 1.0 19.38 0.0
pair_coeff 2 35 0.053744 6.06 -1.0 18.18 0.0
pair_coeff 2 36 0.061287 5.869999999999999 -1.0 17.61 0.0
pair_coeff 2 37 0.034886 6.09 -1.0 18.27 0.0
pair_coeff 2 38 0.107487 6.67 1.0 20.009999999999998 0.0
pair_coeff 2 39 0.083915 6.51 1.0 19.53 0.0
pair_coeff 2 40 0.07543 6.21 1.0 18.63 0.0
pair_coeff 3 3 0.001352 5.68 1.0 17.04 0.0
pair_coeff 3 4 0.001352 5.63 1.0 16.89 0.0
pair_coeff 3 5 0.124388 5.58 1.0 16.740000000000002 0.0
pair_coeff 3 6 0.005408 5.85 1.0 17.549999999999997 0.0
pair_coeff 3 7 0.021633 5.8 -1.0 17.4 0.0
pair_coeff 3 8 0.009464 5.09 1.0 15.27 0.0
pair_coeff 3 9 0.055434 5.88 1.0 17.64 0.0
pair_coeff 3 10 0.21227 5.93 1.0 17.79 0.0
pair_coeff 3 11 0.279872 5.93 1.0 17.79 0.0
pair_coeff 3 12 0.062194 6.02 -1.0 18.06 0.0
pair_coeff 3 13 0.173061 5.93 1.0 17.79 0.0
pair_coeff 3 14 0.281224 6.02 1.0 18.06 0.0
pair_coeff 3 15 0.018929 5.619999999999999 -1.0 16.86 0.0
pair_coeff 3 16 0.012168 5.43 -1.0 16.29 0.0
pair_coeff 3 17 0.028393 5.65 1.0 16.950000000000003 0.0
pair_coeff 3 18 0.189286 6.23 1.0 18.69 0.0
pair_coeff 3 19 0.147372 6.07 1.0 18.21 0.0
pair_coeff 3 20 0.156837 5.77 1.0 17.31 0.0
pair_coeff 3 21 0.040543 5.359999999999999 -1.0 16.08 0.0
pair_coeff 3 22 0.059401 6.119999999999999 -1.0 18.36 0.0
pair_coeff 3 23 0.055629 5.68 -1.0 17.04 0.0
pair_coeff 3 24 0.055629 5.63 -1.0 16.89 0.0
pair_coeff 3 25 0.030172 5.58 1.0 16.740000000000002 0.0
pair_coeff 3 26 0.052801 5.85 -1.0 17.549999999999997 0.0
pair_coeff 3 27 0.071658 5.8 -1.0 17.4 0.0
pair_coeff 3 28 0.049972 5.09 -1.0 15.27 0.0
pair_coeff 3 29 0.017915 5.88 -1.0 17.64 0.0
pair_coeff 3 30 0.091458 5.93 1.0 17.79 0.0
pair_coeff 3 31 0.138602 5.93 1.0 17.79 0.0
pair_coeff 3 32 0.099944 6.02 -1.0 18.06 0.0
pair_coeff 3 33 0.064115 5.93 1.0 17.79 0.0
pair_coeff 3 34 0.139545 6.02 1.0 18.06 0.0
pair_coeff 3 35 0.069772 5.619999999999999 -1.0 16.86 0.0
pair_coeff 3 36 0.065058 5.43 -1.0 16.29 0.0
pair_coeff 3 37 0.036772 5.65 -1.0 16.950000000000003 0.0
pair_coeff 3 38 0.07543 6.23 1.0 18.69 0.0
pair_coeff 3 39 0.046201 6.07 1.0 18.21 0.0
pair_coeff 3 40 0.052801 5.77 1.0 17.31 0.0
pair_coeff 4 4 0.062194 5.58 -1.0 16.740000000000002 $Q
pair_coeff 4 4 0.062194 5.58 -1.0 16.740000000000002 28
pair_coeff 4 5 0.100051 5.53 1.0 16.59 0.0
pair_coeff 4 6 0.028393 5.8 -1.0 17.4 0.0
pair_coeff 4 7 0.087883 5.75 -1.0 17.25 $Q
pair_coeff 4 7 0.087883 5.75 -1.0 17.25 28
pair_coeff 4 8 0.010816 5.04 -1.0 15.120000000000001 0.0
pair_coeff 4 9 0.087883 5.83 1.0 17.490000000000002 $Q
pair_coeff 4 9 0.087883 5.83 1.0 17.490000000000002 28
pair_coeff 4 10 0.202806 5.88 1.0 17.64 0.0
pair_coeff 4 11 0.233903 5.88 1.0 17.64 0.0
pair_coeff 4 12 0.001352 5.970000000000001 1.0 17.910000000000004 $Q
pair_coeff 4 12 0.001352 5.970000000000001 1.0 17.910000000000004 28
pair_coeff 4 13 0.121684 5.88 1.0 17.64 0.0
pair_coeff 4 14 0.244719 5.970000000000001 1.0 17.910000000000004 0.0
pair_coeff 4 15 0.045969 5.57 -1.0 16.71 0.0
pair_coeff 4 16 0.005408 5.38 -1.0 16.14 0.0
pair_coeff 4 17 0.017577 5.6 1.0 16.799999999999997 0.0
pair_coeff 4 18 0.158189 6.18 1.0 18.54 0.0
pair_coeff 4 19 0.147372 6.02 1.0 18.06 0.0
pair_coeff 4 20 0.109515 5.720000000000001 1.0 17.160000000000004 0.0
pair_coeff 4 21 0.053744 5.3100000000000005 -1.0 15.930000000000001 0.0
pair_coeff 4 22 0.001886 6.07 1.0 18.21 $Q
pair_coeff 4 22 0.001886 6.07 1.0 18.21 28
pair_coeff 4 23 0.055629 5.63 -1.0 16.89 0.0
pair_coeff 4 24 0.099944 5.58 -1.0 16.740000000000002 $Q
pair_coeff 4 24 0.099944 5.58 -1.0 16.740000000000002 28
pair_coeff 4 25 0.0132 5.53 1.0 16.59 0.0
pair_coeff 4 26 0.076372 5.8 -1.0 17.4 0.0
pair_coeff 4 27 0.117859 5.75 -1.0 17.25 $Q
pair_coeff 4 27 0.117859 5.75 -1.0 17.25 28
pair_coeff 4 28 0.064115 5.04 -1.0 15.120000000000001 0.0
pair_coeff 4 29 0.004714 5.83 1.0 17.490000000000002 $Q
pair_coeff 4 29 0.004714 5.83 1.0 17.490000000000002 28
pair_coeff 4 30 0.084858 5.88 1.0 17.64 0.0
pair_coeff 4 31 0.106544 5.88 1.0 17.64 0.0
pair_coeff 4 32 0.055629 5.970000000000001 -1.0 17.910000000000004 $Q
pair_coeff 4 32 0.055629 5.970000000000001 -1.0 17.910000000000004 28
pair_coeff 4 33 0.028286 5.88 1.0 17.64 0.0
pair_coeff 4 34 0.114087 5.970000000000001 1.0 17.910000000000004 0.0
pair_coeff 4 35 0.08863 5.57 -1.0 16.71 0.0
pair_coeff 4 36 0.060344 5.38 -1.0 16.14 0.0
pair_coeff 4 37 0.044315 5.6 -1.0 16.799999999999997 0.0
pair_coeff 4 38 0.053744 6.18 1.0 18.54 0.0
pair_coeff 4 39 0.046201 6.02 1.0 18.06 0.0
pair_coeff 4 40 0.0198 5.720000000000001 1.0 17.160000000000004 0.0
pair_coeff 5 5 0.509719 5.48 1.0 16.44 0.0
pair_coeff 5 6 0.159541 5.75 1.0 17.25 0.0
pair_coeff 5 7 0.081122 5.7 1.0 17.1 0.0
pair_coeff 5 8 0.201454 4.99 1.0 14.97 0.0
pair_coeff 5 9 0.260944 5.78 1.0 17.34 0.0
pair_coeff 5 10 0.517831 5.83 1.0 17.490000000000002 0.0
pair_coeff 5 11 0.562449 5.83 1.0 17.490000000000002 0.0
pair_coeff 5 12 0.037857 5.92 1.0 17.759999999999998 0.0
pair_coeff 5 13 0.448877 5.83 1.0 17.490000000000002 0.0
pair_coeff 5 14 0.558393 5.92 1.0 17.759999999999998 0.0
pair_coeff 5 15 0.189286 5.52 1.0 16.56 0.0
pair_coeff 5 16 0.160893 5.33 1.0 15.99 0.0
pair_coeff 5 17 0.194694 5.550000000000001 1.0 16.650000000000002 0.0
pair_coeff 5 18 0.443469 6.130000000000001 1.0 18.39 0.0
pair_coeff 5 19 0.336658 5.970000000000001 1.0 17.910000000000004 0.0
pair_coeff 5 20 0.444821 5.67 1.0 17.009999999999998 0.0
pair_coeff 5 21 0.122573 5.26 1.0 15.78 0.0
pair_coeff 5 22 0.028286 6.02 1.0 18.06 0.0
pair_coeff 5 23 0.030172 5.58 1.0 16.740000000000002 0.0
pair_coeff 5 24 0.0132 5.53 1.0 16.59 0.0
pair_coeff 5 25 0.29889 5.48 1.0 16.44 0.0
pair_coeff 5 26 0.054686 5.75 1.0 17.25 0.0
pair_coeff 5 27 0.002 5.7 -1.0 17.1 0.0
pair_coeff 5 28 0.083915 4.99 1.0 14.97 0.0
pair_coeff 5 29 0.125402 5.78 1.0 17.34 0.0
pair_coeff 5 30 0.304547 5.83 1.0 17.490000000000002 0.0
pair_coeff 5 31 0.335662 5.83 1.0 17.490000000000002 0.0
pair_coeff 5 32 0.030172 5.92 -1.0 17.759999999999998 0.0
pair_coeff 5 33 0.256461 5.83 1.0 17.490000000000002 0.0
pair_coeff 5 34 0.332833 5.92 1.0 17.759999999999998 0.0
pair_coeff 5 35 0.07543 5.52 1.0 16.56 0.0
pair_coeff 5 36 0.055629 5.33 1.0 15.99 0.0
pair_coeff 5 37 0.079201 5.550000000000001 1.0 16.650000000000002 0.0
pair_coeff 5 38 0.252689 6.130000000000001 1.0 18.39 0.0
pair_coeff 5 39 0.178202 5.970000000000001 1.0 17.910000000000004 0.0
pair_coeff 5 40 0.253632 5.67 1.0 17.009999999999998 0.0
pair_coeff 6 6 0.017577 6.02 -1.0 18.06 0.0
pair_coeff 6 7 0.033801 5.97 -1.0 17.91 0.0
pair_coeff 6 8 0.001352 5.26 -1.0 15.78 0.0
pair_coeff 6 9 0.041913 6.05 1.0 18.15 0.0
pair_coeff 6 10 0.270408 6.1 1.0 18.299999999999997 0.0
pair_coeff 6 11 0.320433 6.1 1.0 18.299999999999997 0.0
pair_coeff 6 12 0.051378 6.1899999999999995 -1.0 18.57 0.0
pair_coeff 6 13 0.220383 6.1 1.0 18.299999999999997 0.0
pair_coeff 6 14 0.328546 6.1899999999999995 1.0 18.57 0.0
pair_coeff 6 15 0.008112 5.789999999999999 1.0 17.369999999999997 0.0
pair_coeff 6 16 0.024337 5.6 -1.0 16.799999999999997 0.0
pair_coeff 6 17 0.031097 5.82 1.0 17.46 0.0
pair_coeff 6 18 0.194694 6.4 1.0 19.200000000000003 0.0
pair_coeff 6 19 0.175765 6.24 1.0 18.72 0.0
pair_coeff 6 20 0.189286 5.9399999999999995 1.0 17.82 0.0
pair_coeff 6 21 0.035829 5.529999999999999 -1.0 16.589999999999996 0.0
pair_coeff 6 22 0.044315 6.289999999999999 -1.0 18.869999999999997 0.0
pair_coeff 6 23 0.052801 5.85 -1.0 17.549999999999997 0.0
pair_coeff 6 24 0.076372 5.8 -1.0 17.4 0.0
pair_coeff 6 25 0.054686 5.75 1.0 17.25 0.0
pair_coeff 6 26 0.06883 6.02 -1.0 18.06 0.0
pair_coeff 6 27 0.080144 5.97 -1.0 17.91 0.0
pair_coeff 6 28 0.057515 5.26 -1.0 15.78 0.0
pair_coeff 6 29 0.027343 6.05 -1.0 18.15 0.0
pair_coeff 6 30 0.132002 6.1 1.0 18.299999999999997 0.0
pair_coeff 6 31 0.166888 6.1 1.0 18.299999999999997 0.0
pair_coeff 6 32 0.092401 6.1899999999999995 -1.0 18.57 0.0
pair_coeff 6 33 0.097116 6.1 1.0 18.299999999999997 0.0
pair_coeff 6 34 0.172545 6.1899999999999995 1.0 18.57 0.0
pair_coeff 6 35 0.050915 5.789999999999999 -1.0 17.369999999999997 0.0
pair_coeff 6 36 0.073544 5.6 -1.0 16.799999999999997 0.0
pair_coeff 6 37 0.034886 5.82 -1.0 17.46 0.0
pair_coeff 6 38 0.079201 6.4 1.0 19.200000000000003 0.0
pair_coeff 6 39 0.066001 6.24 1.0 18.72 0.0
pair_coeff 6 40 0.07543 5.9399999999999995 1.0 17.82 0.0
pair_coeff 7 7 0.102755 5.92 -1.0 17.759999999999998 $Q
pair_coeff 7 7 0.102755 5.92 -1.0 17.759999999999998 28
pair_coeff 7 8 0.060842 5.21 -1.0 15.629999999999999 0.0
pair_coeff 7 9 0.064898 6.0 1.0 18.0 $Q
pair_coeff 7 9 0.064898 6.0 1.0 18.0 28
pair_coeff 7 10 0.216326 6.05 1.0 18.15 0.0
pair_coeff 7 11 0.259592 6.05 1.0 18.15 0.0
pair_coeff 7 12 0.017577 6.140000000000001 1.0 18.42 $Q
pair_coeff 7 12 0.017577 6.140000000000001 1.0 18.42 28
pair_coeff 7 13 0.164949 6.05 1.0 18.15 0.0
pair_coeff 7 14 0.255536 6.140000000000001 1.0 18.42 0.0
pair_coeff 7 15 0.055434 5.74 -1.0 17.22 0.0
pair_coeff 7 16 0.025689 5.55 -1.0 16.65 0.0
pair_coeff 7 17 0.009464 5.77 1.0 17.31 0.0
pair_coeff 7 18 0.178469 6.35 1.0 19.049999999999997 0.0
pair_coeff 7 19 0.151428 6.1899999999999995 1.0 18.57 0.0
pair_coeff 7 20 0.135204 5.890000000000001 1.0 17.67 0.0
pair_coeff 7 21 0.071658 5.48 -1.0 16.44 0.0
pair_coeff 7 22 0.002 6.24 -1.0 18.72 $Q
pair_coeff 7 22 0.002 6.24 -1.0 18.72 28
pair_coeff 7 23 0.071658 5.8 -1.0 17.4 0.0
pair_coeff 7 24 0.117859 5.75 -1.0 17.25 $Q
pair_coeff 7 24 0.117859 5.75 -1.0 17.25 28
pair_coeff 7 25 0.002 5.7 -1.0 17.1 0.0
pair_coeff 7 26 0.080144 5.97 -1.0 17.91 0.0
pair_coeff 7 27 0.12823 5.92 -1.0 17.759999999999998 $Q
pair_coeff 7 27 0.12823 5.92 -1.0 17.759999999999998 28
pair_coeff 7 28 0.099001 5.21 -1.0 15.629999999999999 0.0
pair_coeff 7 29 0.011314 6.0 -1.0 18.0 $Q
pair_coeff 7 29 0.011314 6.0 -1.0 18.0 28
pair_coeff 7 30 0.094287 6.05 1.0 18.15 0.0
pair_coeff 7 31 0.124459 6.05 1.0 18.15 0.0
pair_coeff 7 32 0.044315 6.140000000000001 -1.0 18.42 $Q
pair_coeff 7 32 0.044315 6.140000000000001 -1.0 18.42 28
pair_coeff 7 33 0.058458 6.05 1.0 18.15 0.0
pair_coeff 7 34 0.12163 6.140000000000001 1.0 18.42 0.0
pair_coeff 7 35 0.09523 5.74 -1.0 17.22 0.0
pair_coeff 7 36 0.074487 5.55 -1.0 16.65 0.0
pair_coeff 7 37 0.049972 5.77 -1.0 17.31 0.0
pair_coeff 7 38 0.067887 6.35 1.0 19.049999999999997 0.0
pair_coeff 7 39 0.049029 6.1899999999999995 1.0 18.57 0.0
pair_coeff 7 40 0.037715 5.890000000000001 1.0 17.67 0.0
pair_coeff 8 8 0.077066 4.5 1.0 13.5 0.0
pair_coeff 8 9 0.064898 5.29 1.0 15.870000000000001 0.0
pair_coeff 8 10 0.28528 5.34 1.0 16.02 0.0
pair_coeff 8 11 0.336658 5.34 1.0 16.02 0.0
pair_coeff 8 12 0.070306 5.43 -1.0 16.29 0.0
pair_coeff 8 13 0.232551 5.34 1.0 16.02 0.0
pair_coeff 8 14 0.332602 5.43 1.0 16.29 0.0
pair_coeff 8 15 0.027041 5.029999999999999 1.0 15.089999999999998 0.0
pair_coeff 8 16 0.020281 4.84 1.0 14.52 0.0
pair_coeff 8 17 0.055434 5.0600000000000005 1.0 15.180000000000001 0.0
pair_coeff 8 18 0.236607 5.640000000000001 1.0 16.92 0.0
pair_coeff 8 19 0.181173 5.48 1.0 16.44 0.0
pair_coeff 8 20 0.231199 5.18 1.0 15.54 0.0
pair_coeff 8 21 0.003771 4.77 1.0 14.309999999999999 0.0
pair_coeff 8 22 0.051858 5.529999999999999 -1.0 16.589999999999996 0.0
pair_coeff 8 23 0.049972 5.09 -1.0 15.27 0.0
pair_coeff 8 24 0.064115 5.04 -1.0 15.120000000000001 0.0
pair_coeff 8 25 0.083915 4.99 1.0 14.97 0.0
pair_coeff 8 26 0.057515 5.26 -1.0 15.78 0.0
pair_coeff 8 27 0.099001 5.21 -1.0 15.629999999999999 0.0
pair_coeff 8 28 0.002829 4.5 -1.0 13.5 0.0
pair_coeff 8 29 0.011314 5.29 -1.0 15.870000000000001 0.0
pair_coeff 8 30 0.142373 5.34 1.0 16.02 0.0
pair_coeff 8 31 0.178202 5.34 1.0 16.02 0.0
pair_coeff 8 32 0.105601 5.43 -1.0 16.29 0.0
pair_coeff 8 33 0.105601 5.34 1.0 16.02 0.0
pair_coeff 8 34 0.175374 5.43 1.0 16.29 0.0
pair_coeff 8 35 0.037715 5.029999999999999 -1.0 15.089999999999998 0.0
pair_coeff 8 36 0.042429 4.84 -1.0 14.52 0.0
pair_coeff 8 37 0.017915 5.0600000000000005 -1.0 15.180000000000001 0.0
pair_coeff 8 38 0.10843 5.640000000000001 1.0 16.92 0.0
pair_coeff 8 39 0.069772 5.48 1.0 16.44 0.0
pair_coeff 8 40 0.104659 5.18 1.0 15.54 0.0
pair_coeff 9 9 0.186582 6.08 1.0 18.240000000000002 $Q
pair_coeff 9 9 0.186582 6.08 1.0 18.240000000000002 28
pair_coeff 9 10 0.333954 6.13 1.0 18.39 0.0
pair_coeff 9 11 0.388035 6.13 1.0 18.39 0.0
pair_coeff 9 12 0.043265 6.220000000000001 -1.0 18.660000000000004 $Q
pair_coeff 9 12 0.043265 6.220000000000001 -1.0 18.660000000000004 28
pair_coeff 9 13 0.312321 6.13 1.0 18.39 0.0
pair_coeff 9 14 0.419132 6.220000000000001 1.0 18.660000000000004 0.0
pair_coeff 9 15 0.078418 5.82 1.0 17.46 0.0
pair_coeff 9 16 0.05949 5.63 1.0 16.89 0.0
pair_coeff 9 17 0.101403 5.85 1.0 17.549999999999997 0.0
pair_coeff 9 18 0.312321 6.43 1.0 19.29 0.0
pair_coeff 9 19 0.250127 6.27 1.0 18.81 0.0
pair_coeff 9 20 0.25824 5.970000000000001 1.0 17.910000000000004 0.0
pair_coeff 9 21 0.0132 5.5600000000000005 1.0 16.68 0.0
pair_coeff 9 22 0.010372 6.32 -1.0 18.96 $Q
pair_coeff 9 22 0.010372 6.32 -1.0 18.96 28
pair_coeff 9 23 0.017915 5.88 -1.0 17.64 0.0
pair_coeff 9 24 0.004714 5.83 1.0 17.490000000000002 $Q
pair_coeff 9 24 0.004714 5.83 1.0 17.490000000000002 28
pair_coeff 9 25 0.125402 5.78 1.0 17.34 0.0
pair_coeff 9 26 0.027343 6.05 -1.0 18.15 0.0
pair_coeff 9 27 0.011314 6.0 -1.0 18.0 $Q
pair_coeff 9 27 0.011314 6.0 -1.0 18.0 28
pair_coeff 9 28 0.011314 5.29 -1.0 15.870000000000001 0.0
pair_coeff 9 29 0.073544 6.08 1.0 18.240000000000002 $Q
pair_coeff 9 29 0.073544 6.08 1.0 18.240000000000002 28
pair_coeff 9 30 0.176317 6.13 1.0 18.39 0.0
pair_coeff 9 31 0.214031 6.13 1.0 18.39 0.0
pair_coeff 9 32 0.086744 6.220000000000001 -1.0 18.660000000000004 $Q
pair_coeff 9 32 0.086744 6.220000000000001 -1.0 18.660000000000004 28
pair_coeff 9 33 0.161231 6.13 1.0 18.39 0.0
pair_coeff 9 34 0.235717 6.220000000000001 1.0 18.660000000000004 0.0
pair_coeff 9 35 0.001886 5.82 -1.0 17.46 0.0
pair_coeff 9 36 0.015086 5.63 -1.0 16.89 0.0
pair_coeff 9 37 0.014143 5.85 1.0 17.549999999999997 0.0
pair_coeff 9 38 0.161231 6.43 1.0 19.29 0.0
pair_coeff 9 39 0.117859 6.27 1.0 18.81 0.0
pair_coeff 9 40 0.123516 5.970000000000001 1.0 17.910000000000004 0.0
pair_coeff 10 10 0.658443 6.18 1.0 18.54 0.0
pair_coeff 10 11 0.726045 6.18 1.0 18.54 0.0
pair_coeff 10 12 0.181173 6.27 1.0 18.81 0.0
pair_coeff 10 13 0.588137 6.18 1.0 18.54 0.0
pair_coeff 10 14 0.699005 6.27 1.0 18.81 0.0
pair_coeff 10 15 0.282576 5.869999999999999 1.0 17.61 0.0
pair_coeff 10 16 0.250127 5.68 1.0 17.04 0.0
pair_coeff 10 17 0.319081 5.9 1.0 17.700000000000003 0.0
pair_coeff 10 18 0.555688 6.48 1.0 19.44 0.0
pair_coeff 10 19 0.48403 6.32 1.0 18.96 0.0
pair_coeff 10 20 0.592194 6.02 1.0 18.06 0.0
pair_coeff 10 21 0.217803 5.609999999999999 1.0 16.83 0.0
pair_coeff 10 22 0.12823 6.369999999999999 1.0 19.11 0.0
pair_coeff 10 23 0.091458 5.93 1.0 17.79 0.0
pair_coeff 10 24 0.084858 5.88 1.0 17.64 0.0
pair_coeff 10 25 0.304547 5.83 1.0 17.490000000000002 0.0
pair_coeff 10 26 0.132002 6.1 1.0 18.299999999999997 0.0
pair_coeff 10 27 0.094287 6.05 1.0 18.15 0.0
pair_coeff 10 28 0.142373 5.34 1.0 16.02 0.0
pair_coeff 10 29 0.176317 6.13 1.0 18.39 0.0
pair_coeff 10 30 0.402605 6.18 1.0 18.54 0.0
pair_coeff 10 31 0.449749 6.18 1.0 18.54 0.0
pair_coeff 10 32 0.069772 6.27 1.0 18.81 0.0
pair_coeff 10 33 0.353576 6.18 1.0 18.54 0.0
pair_coeff 10 34 0.430892 6.27 1.0 18.81 0.0
pair_coeff 10 35 0.140488 5.869999999999999 1.0 17.61 0.0
pair_coeff 10 36 0.117859 5.68 1.0 17.04 0.0
pair_coeff 10 37 0.165945 5.9 1.0 17.700000000000003 0.0
pair_coeff 10 38 0.330947 6.48 1.0 19.44 0.0
pair_coeff 10 39 0.280975 6.32 1.0 18.96 0.0
pair_coeff 10 40 0.356405 6.02 1.0 18.06 0.0
pair_coeff 11 11 0.770663 6.18 1.0 18.54 0.0
pair_coeff 11 12 0.229847 6.27 1.0 18.81 0.0
pair_coeff 11 13 0.640867 6.18 1.0 18.54 0.0
pair_coeff 11 14 0.758494 6.27 1.0 18.81 0.0
pair_coeff 11 15 0.342066 5.869999999999999 1.0 17.61 0.0
pair_coeff 11 16 0.304209 5.68 1.0 17.04 0.0
pair_coeff 11 17 0.360995 5.9 1.0 17.700000000000003 0.0
pair_coeff 11 18 0.604362 6.48 1.0 19.44 0.0
pair_coeff 11 19 0.540816 6.32 1.0 18.96 0.0
pair_coeff 11 20 0.650331 6.02 1.0 18.06 0.0
pair_coeff 11 21 0.248918 5.609999999999999 1.0 16.83 0.0
pair_coeff 11 22 0.165945 6.369999999999999 1.0 19.11 0.0
pair_coeff 11 23 0.138602 5.93 1.0 17.79 0.0
pair_coeff 11 24 0.106544 5.88 1.0 17.64 0.0
pair_coeff 11 25 0.335662 5.83 1.0 17.490000000000002 0.0
pair_coeff 11 26 0.166888 6.1 1.0 18.299999999999997 0.0
pair_coeff 11 27 0.124459 6.05 1.0 18.15 0.0
pair_coeff 11 28 0.178202 5.34 1.0 16.02 0.0
pair_coeff 11 29 0.214031 6.13 1.0 18.39 0.0
pair_coeff 11 30 0.449749 6.18 1.0 18.54 0.0
pair_coeff 11 31 0.480864 6.18 1.0 18.54 0.0
pair_coeff 11 32 0.103716 6.27 1.0 18.81 0.0
pair_coeff 11 33 0.390348 6.18 1.0 18.54 0.0
pair_coeff 11 34 0.472378 6.27 1.0 18.81 0.0
pair_coeff 11 35 0.181974 5.869999999999999 1.0 17.61 0.0
pair_coeff 11 36 0.155574 5.68 1.0 17.04 0.0
pair_coeff 11 37 0.195174 5.9 1.0 17.700000000000003 0.0
pair_coeff 11 38 0.364891 6.48 1.0 19.44 0.0
pair_coeff 11 39 0.320576 6.32 1.0 18.96 0.0
pair_coeff 11 40 0.396948 6.02 1.0 18.06 0.0
pair_coeff 12 12 0.209566 6.36 -1.0 19.080000000000002 $Q
pair_coeff 12 12 0.209566 6.36 -1.0 19.080000000000002 28
pair_coeff 12 13 0.109515 6.27 1.0 18.81 0.0
pair_coeff 12 14 0.228495 6.36 1.0 19.080000000000002 0.0
pair_coeff 12 15 0.094643 5.96 -1.0 17.88 0.0
pair_coeff 12 16 0.083826 5.77 -1.0 17.31 0.0
pair_coeff 12 17 0.048673 5.99 -1.0 17.97 0.0
pair_coeff 12 18 0.137908 6.57 1.0 19.71 0.0
pair_coeff 12 19 0.12574 6.41 1.0 19.23 0.0
pair_coeff 12 20 0.110867 6.11 1.0 18.330000000000002 0.0
pair_coeff 12 21 0.090516 5.7 -1.0 17.1 0.0
pair_coeff 12 22 0.158402 6.46 -1.0 19.38 $Q
pair_coeff 12 22 0.158402 6.46 -1.0 19.38 28
pair_coeff 12 23 0.099944 6.02 -1.0 18.06 0.0
pair_coeff 12 24 0.055629 5.970000000000001 -1.0 17.910000000000004 $Q
pair_coeff 12 24 0.055629 5.970000000000001 -1.0 17.910000000000004 28
pair_coeff 12 25 0.030172 5.92 -1.0 17.759999999999998 0.0
pair_coeff 12 26 0.092401 6.1899999999999995 -1.0 18.57 0.0
pair_coeff 12 27 0.044315 6.140000000000001 -1.0 18.42 $Q
pair_coeff 12 27 0.044315 6.140000000000001 -1.0 18.42 28
pair_coeff 12 28 0.105601 5.43 -1.0 16.29 0.0
pair_coeff 12 29 0.086744 6.220000000000001 -1.0 18.660000000000004 $Q
pair_coeff 12 29 0.086744 6.220000000000001 -1.0 18.660000000000004 28
pair_coeff 12 30 0.069772 6.27 1.0 18.81 0.0
pair_coeff 12 31 0.103716 6.27 1.0 18.81 0.0
pair_coeff 12 32 0.202717 6.36 -1.0 19.080000000000002 $Q
pair_coeff 12 32 0.202717 6.36 -1.0 19.080000000000002 28
pair_coeff 12 33 0.0198 6.27 1.0 18.81 0.0
pair_coeff 12 34 0.102773 6.36 1.0 19.080000000000002 0.0
pair_coeff 12 35 0.122573 5.96 -1.0 17.88 0.0
pair_coeff 12 36 0.11503 5.77 -1.0 17.31 0.0
pair_coeff 12 37 0.090516 5.99 -1.0 17.97 0.0
pair_coeff 12 38 0.039601 6.57 1.0 19.71 0.0
pair_coeff 12 39 0.031115 6.41 1.0 19.23 0.0
pair_coeff 12 40 0.020743 6.11 1.0 18.330000000000002 0.0
pair_coeff 13 13 0.512423 6.18 1.0 18.54 0.0
pair_coeff 13 14 0.661148 6.27 1.0 18.81 0.0
pair_coeff 13 15 0.240663 5.869999999999999 1.0 17.61 0.0
pair_coeff 13 16 0.183877 5.68 1.0 17.04 0.0
pair_coeff 13 17 0.248775 5.9 1.0 17.700000000000003 0.0
pair_coeff 13 18 0.524592 6.48 1.0 19.44 0.0
pair_coeff 13 19 0.438061 6.32 1.0 18.96 0.0
pair_coeff 13 20 0.493495 6.02 1.0 18.06 0.0
pair_coeff 13 21 0.157459 5.609999999999999 1.0 16.83 0.0
pair_coeff 13 22 0.080144 6.369999999999999 1.0 19.11 0.0
pair_coeff 13 23 0.064115 5.93 1.0 17.79 0.0
pair_coeff 13 24 0.028286 5.88 1.0 17.64 0.0
pair_coeff 13 25 0.256461 5.83 1.0 17.490000000000002 0.0
pair_coeff 13 26 0.097116 6.1 1.0 18.299999999999997 0.0
pair_coeff 13 27 0.058458 6.05 1.0 18.15 0.0
pair_coeff 13 28 0.105601 5.34 1.0 16.02 0.0
pair_coeff 13 29 0.161231 6.13 1.0 18.39 0.0
pair_coeff 13 30 0.353576 6.18 1.0 18.54 0.0
pair_coeff 13 31 0.390348 6.18 1.0 18.54 0.0
pair_coeff 13 32 0.0198 6.27 1.0 18.81 0.0
pair_coeff 13 33 0.300776 6.18 1.0 18.54 0.0
pair_coeff 13 34 0.404491 6.27 1.0 18.81 0.0
pair_coeff 13 35 0.111259 5.869999999999999 1.0 17.61 0.0
pair_coeff 13 36 0.071658 5.68 1.0 17.04 0.0
pair_coeff 13 37 0.116916 5.9 1.0 17.700000000000003 0.0
pair_coeff 13 38 0.309261 6.48 1.0 19.44 0.0
pair_coeff 13 39 0.248918 6.32 1.0 18.96 0.0
pair_coeff 13 40 0.287575 6.02 1.0 18.06 0.0
pair_coeff 14 14 0.75579 6.36 1.0 19.080000000000002 0.0
pair_coeff 14 15 0.348826 5.96 1.0 17.88 0.0
pair_coeff 14 16 0.317729 5.77 1.0 17.31 0.0
pair_coeff 14 17 0.352882 5.99 1.0 17.97 0.0
pair_coeff 14 18 0.607066 6.57 1.0 19.71 0.0
pair_coeff 14 19 0.539464 6.41 1.0 19.23 0.0
pair_coeff 14 20 0.624642 6.11 1.0 18.330000000000002 0.0
pair_coeff 14 21 0.239489 5.7 1.0 17.1 0.0
pair_coeff 14 22 0.161231 6.46 1.0 19.38 0.0
pair_coeff 14 23 0.139545 6.02 1.0 18.06 0.0
pair_coeff 14 24 0.114087 5.970000000000001 1.0 17.910000000000004 0.0
pair_coeff 14 25 0.332833 5.92 1.0 17.759999999999998 0.0
pair_coeff 14 26 0.172545 6.1899999999999995 1.0 18.57 0.0
pair_coeff 14 27 0.12163 6.140000000000001 1.0 18.42 0.0
pair_coeff 14 28 0.175374 5.43 1.0 16.29 0.0
pair_coeff 14 29 0.235717 6.220000000000001 1.0 18.660000000000004 0.0
pair_coeff 14 30 0.430892 6.27 1.0 18.81 0.0
pair_coeff 14 31 0.472378 6.27 1.0 18.81 0.0
pair_coeff 14 32 0.102773 6.36 1.0 19.080000000000002 0.0
pair_coeff 14 33 0.404491 6.27 1.0 18.81 0.0
pair_coeff 14 34 0.470492 6.36 1.0 19.080000000000002 0.0
pair_coeff 14 35 0.186688 5.96 1.0 17.88 0.0
pair_coeff 14 36 0.165002 5.77 1.0 17.31 0.0
pair_coeff 14 37 0.189517 5.99 1.0 17.97 0.0
pair_coeff 14 38 0.366776 6.57 1.0 19.71 0.0
pair_coeff 14 39 0.319633 6.41 1.0 19.23 0.0
pair_coeff 14 40 0.379034 6.11 1.0 18.330000000000002 0.0
pair_coeff 15 15 0.010816 5.56 1.0 16.68 0.0
pair_coeff 15 16 0.01352 5.369999999999999 -1.0 16.11 0.0
pair_coeff 15 17 0.031097 5.59 1.0 16.77 0.0
pair_coeff 15 18 0.27852 6.17 1.0 18.509999999999998 0.0
pair_coeff 15 19 0.20551 6.01 1.0 18.03 0.0
pair_coeff 15 20 0.223087 5.71 1.0 17.13 0.0
pair_coeff 15 21 0.022629 5.3 -1.0 15.899999999999999 0.0
pair_coeff 15 22 0.053744 6.06 -1.0 18.18 0.0
pair_coeff 15 23 0.069772 5.619999999999999 -1.0 16.86 0.0
pair_coeff 15 24 0.08863 5.57 -1.0 16.71 0.0
pair_coeff 15 25 0.07543 5.52 1.0 16.56 0.0
pair_coeff 15 26 0.050915 5.789999999999999 -1.0 17.369999999999997 0.0
pair_coeff 15 27 0.09523 5.74 -1.0 17.22 0.0
pair_coeff 15 28 0.037715 5.029999999999999 -1.0 15.089999999999998 0.0
pair_coeff 15 29 0.001886 5.82 -1.0 17.46 0.0
pair_coeff 15 30 0.140488 5.869999999999999 1.0 17.61 0.0
pair_coeff 15 31 0.181974 5.869999999999999 1.0 17.61 0.0
pair_coeff 15 32 0.122573 5.96 -1.0 17.88 0.0
pair_coeff 15 33 0.111259 5.869999999999999 1.0 17.61 0.0
pair_coeff 15 34 0.186688 5.96 1.0 17.88 0.0
pair_coeff 15 35 0.049029 5.56 -1.0 16.68 0.0
pair_coeff 15 36 0.066001 5.369999999999999 -1.0 16.11 0.0
pair_coeff 15 37 0.034886 5.59 -1.0 16.77 0.0
pair_coeff 15 38 0.137659 6.17 1.0 18.509999999999998 0.0
pair_coeff 15 39 0.086744 6.01 1.0 18.03 0.0
pair_coeff 15 40 0.099001 5.71 1.0 17.13 0.0
pair_coeff 16 16 0.002 5.18 -1.0 15.54 0.0
pair_coeff 16 17 0.039209 5.4 1.0 16.200000000000003 0.0
pair_coeff 16 18 0.178469 5.98 1.0 17.94 0.0
pair_coeff 16 19 0.150076 5.82 1.0 17.46 0.0
pair_coeff 16 20 0.186582 5.52 1.0 16.56 0.0
pair_coeff 16 21 0.024515 5.109999999999999 -1.0 15.329999999999998 0.0
pair_coeff 16 22 0.061287 5.869999999999999 -1.0 17.61 0.0
pair_coeff 16 23 0.065058 5.43 -1.0 16.29 0.0
pair_coeff 16 24 0.060344 5.38 -1.0 16.14 0.0
pair_coeff 16 25 0.055629 5.33 1.0 15.99 0.0
pair_coeff 16 26 0.073544 5.6 -1.0 16.799999999999997 0.0
pair_coeff 16 27 0.074487 5.55 -1.0 16.65 0.0
pair_coeff 16 28 0.042429 4.84 -1.0 14.52 0.0
pair_coeff 16 29 0.015086 5.63 -1.0 16.89 0.0
pair_coeff 16 30 0.117859 5.68 1.0 17.04 0.0
pair_coeff 16 31 0.155574 5.68 1.0 17.04 0.0
pair_coeff 16 32 0.11503 5.77 -1.0 17.31 0.0
pair_coeff 16 33 0.071658 5.68 1.0 17.04 0.0
pair_coeff 16 34 0.165002 5.77 1.0 17.31 0.0
pair_coeff 16 35 0.066001 5.369999999999999 -1.0 16.11 0.0
pair_coeff 16 36 0.056572 5.18 -1.0 15.54 0.0
pair_coeff 16 37 0.029229 5.4 -1.0 16.200000000000003 0.0
pair_coeff 16 38 0.067887 5.98 1.0 17.94 0.0
pair_coeff 16 39 0.048086 5.82 1.0 17.46 0.0
pair_coeff 16 40 0.073544 5.52 1.0 16.56 0.0
pair_coeff 17 17 0.060842 5.62 1.0 16.86 0.0
pair_coeff 17 18 0.209566 6.2 1.0 18.6 0.0
pair_coeff 17 19 0.181173 6.04 1.0 18.12 0.0
pair_coeff 17 20 0.242015 5.74 1.0 17.22 0.0
pair_coeff 17 21 0.004714 5.33 1.0 15.99 0.0
pair_coeff 17 22 0.034886 6.09 -1.0 18.27 0.0
pair_coeff 17 23 0.036772 5.65 -1.0 16.950000000000003 0.0
pair_coeff 17 24 0.044315 5.6 -1.0 16.799999999999997 0.0
pair_coeff 17 25 0.079201 5.550000000000001 1.0 16.650000000000002 0.0
pair_coeff 17 26 0.034886 5.82 -1.0 17.46 0.0
pair_coeff 17 27 0.049972 5.77 -1.0 17.31 0.0
pair_coeff 17 28 0.017915 5.0600000000000005 -1.0 15.180000000000001 0.0
pair_coeff 17 29 0.014143 5.85 1.0 17.549999999999997 0.0
pair_coeff 17 30 0.165945 5.9 1.0 17.700000000000003 0.0
pair_coeff 17 31 0.195174 5.9 1.0 17.700000000000003 0.0
pair_coeff 17 32 0.090516 5.99 -1.0 17.97 0.0
pair_coeff 17 33 0.116916 5.9 1.0 17.700000000000003 0.0
pair_coeff 17 34 0.189517 5.99 1.0 17.97 0.0
pair_coeff 17 35 0.034886 5.59 -1.0 16.77 0.0
pair_coeff 17 36 0.029229 5.4 -1.0 16.200000000000003 0.0
pair_coeff 17 37 0.014143 5.62 -1.0 16.86 0.0
pair_coeff 17 38 0.089573 6.2 1.0 18.6 0.0
pair_coeff 17 39 0.069772 6.04 1.0 18.12 0.0
pair_coeff 17 40 0.112202 5.74 1.0 17.22 0.0
pair_coeff 18 18 0.458342 6.78 1.0 20.34 0.0
pair_coeff 18 19 0.40426 6.62 1.0 19.86 0.0
pair_coeff 18 20 0.474566 6.32 1.0 18.96 0.0
pair_coeff 18 21 0.146145 5.91 1.0 17.73 0.0
pair_coeff 18 22 0.107487 6.67 1.0 20.009999999999998 0.0
pair_coeff 18 23 0.07543 6.23 1.0 18.69 0.0
pair_coeff 18 24 0.053744 6.18 1.0 18.54 0.0
pair_coeff 18 25 0.252689 6.130000000000001 1.0 18.39 0.0
pair_coeff 18 26 0.079201 6.4 1.0 19.200000000000003 0.0
pair_coeff 18 27 0.067887 6.35 1.0 19.049999999999997 0.0
pair_coeff 18 28 0.10843 5.640000000000001 1.0 16.92 0.0
pair_coeff 18 29 0.161231 6.43 1.0 19.29 0.0
pair_coeff 18 30 0.330947 6.48 1.0 19.44 0.0
pair_coeff 18 31 0.364891 6.48 1.0 19.44 0.0
pair_coeff 18 32 0.039601 6.57 1.0 19.71 0.0
pair_coeff 18 33 0.309261 6.48 1.0 19.44 0.0
pair_coeff 18 34 0.366776 6.57 1.0 19.71 0.0
pair_coeff 18 35 0.137659 6.17 1.0 18.509999999999998 0.0
pair_coeff 18 36 0.067887 5.98 1.0 17.94 0.0
pair_coeff 18 37 0.089573 6.2 1.0 18.6 0.0
pair_coeff 18 38 0.263061 6.78 1.0 20.34 0.0
pair_coeff 18 39 0.225346 6.62 1.0 19.86 0.0
pair_coeff 18 40 0.274375 6.32 1.0 18.96 0.0
pair_coeff 19 19 0.33801 6.46 1.0 19.38 0.0
pair_coeff 19 20 0.398852 6.16 1.0 18.48 0.0
pair_coeff 19 21 0.102773 5.75 1.0 17.25 0.0
pair_coeff 19 22 0.083915 6.51 1.0 19.53 0.0
pair_coeff 19 23 0.046201 6.07 1.0 18.21 0.0
pair_coeff 19 24 0.046201 6.02 1.0 18.06 0.0
pair_coeff 19 25 0.178202 5.970000000000001 1.0 17.910000000000004 0.0
pair_coeff 19 26 0.066001 6.24 1.0 18.72 0.0
pair_coeff 19 27 0.049029 6.1899999999999995 1.0 18.57 0.0
pair_coeff 19 28 0.069772 5.48 1.0 16.44 0.0
pair_coeff 19 29 0.117859 6.27 1.0 18.81 0.0
pair_coeff 19 30 0.280975 6.32 1.0 18.96 0.0
pair_coeff 19 31 0.320576 6.32 1.0 18.96 0.0
pair_coeff 19 32 0.031115 6.41 1.0 19.23 0.0
pair_coeff 19 33 0.248918 6.32 1.0 18.96 0.0
pair_coeff 19 34 0.319633 6.41 1.0 19.23 0.0
pair_coeff 19 35 0.086744 6.01 1.0 18.03 0.0
pair_coeff 19 36 0.048086 5.82 1.0 17.46 0.0
pair_coeff 19 37 0.069772 6.04 1.0 18.12 0.0
pair_coeff 19 38 0.225346 6.62 1.0 19.86 0.0
pair_coeff 19 39 0.179145 6.46 1.0 19.38 0.0
pair_coeff 19 40 0.221574 6.16 1.0 18.48 0.0
pair_coeff 20 20 0.520535 5.86 1.0 17.580000000000002 0.0
pair_coeff 20 21 0.166888 5.45 1.0 16.35 0.0
pair_coeff 20 22 0.07543 6.21 1.0 18.63 0.0
pair_coeff 20 23 0.052801 5.77 1.0 17.31 0.0
pair_coeff 20 24 0.0198 5.720000000000001 1.0 17.160000000000004 0.0
pair_coeff 20 25 0.253632 5.67 1.0 17.009999999999998 0.0
pair_coeff 20 26 0.07543 5.9399999999999995 1.0 17.82 0.0
pair_coeff 20 27 0.037715 5.890000000000001 1.0 17.67 0.0
pair_coeff 20 28 0.104659 5.18 1.0 15.54 0.0
pair_coeff 20 29 0.123516 5.970000000000001 1.0 17.910000000000004 0.0
pair_coeff 20 30 0.356405 6.02 1.0 18.06 0.0
pair_coeff 20 31 0.396948 6.02 1.0 18.06 0.0
pair_coeff 20 32 0.020743 6.11 1.0 18.330000000000002 0.0
pair_coeff 20 33 0.287575 6.02 1.0 18.06 0.0
pair_coeff 20 34 0.379034 6.11 1.0 18.330000000000002 0.0
pair_coeff 20 35 0.099001 5.71 1.0 17.13 0.0
pair_coeff 20 36 0.073544 5.52 1.0 16.56 0.0
pair_coeff 20 37 0.112202 5.74 1.0 17.22 0.0
pair_coeff 20 38 0.274375 6.32 1.0 18.96 0.0
pair_coeff 20 39 0.221574 6.16 1.0 18.48 0.0
pair_coeff 20 40 0.306433 5.86 1.0 17.580000000000002 0.0
pair_coeff 21 21 0.042429 5.04 1.0 15.120000000000001 0.0
pair_coeff 21 22 0.041486 5.8 -1.0 17.4 0.0
pair_coeff 21 23 0.040543 5.359999999999999 -1.0 16.08 0.0
pair_coeff 21 24 0.053744 5.3100000000000005 -1.0 15.930000000000001 0.0
pair_coeff 21 25 0.122573 5.26 1.0 15.78 0.0
pair_coeff 21 26 0.035829 5.529999999999999 -1.0 16.589999999999996 0.0
pair_coeff 21 27 0.071658 5.48 -1.0 16.44 0.0
pair_coeff 21 28 0.003771 4.77 1.0 14.309999999999999 0.0
pair_coeff 21 29 0.0132 5.5600000000000005 1.0 16.68 0.0
pair_coeff 21 30 0.217803 5.609999999999999 1.0 16.83 0.0
pair_coeff 21 31 0.248918 5.609999999999999 1.0 16.83 0.0
pair_coeff 21 32 0.090516 5.7 -1.0 17.1 0.0
pair_coeff 21 33 0.157459 5.609999999999999 1.0 16.83 0.0
pair_coeff 21 34 0.239489 5.7 1.0 17.1 0.0
pair_coeff 21 35 0.022629 5.3 -1.0 15.899999999999999 0.0
pair_coeff 21 36 0.024515 5.109999999999999 -1.0 15.329999999999998 0.0
pair_coeff 21 37 0.004714 5.33 1.0 15.99 0.0
pair_coeff 21 38 0.146145 5.91 1.0 17.73 0.0
pair_coeff 21 39 0.102773 5.75 1.0 17.25 0.0
pair_coeff 21 40 0.166888 5.45 1.0 16.35 0.0
pair_coeff 22 22 0.067887 6.56 -1.0 19.68 $Q
pair_coeff 22 22 0.067887 6.56 -1.0 19.68 28
pair_coeff 22 23 0.059401 6.119999999999999 -1.0 18.36 0.0
pair_coeff 22 24 0.001886 6.07 1.0 18.21 $Q
pair_coeff 22 24 0.001886 6.07 1.0 18.21 28
pair_coeff 22 25 0.028286 6.02 1.0 18.06 0.0
pair_coeff 22 26 0.044315 6.289999999999999 -1.0 18.869999999999997 0.0
pair_coeff 22 27 0.002 6.24 -1.0 18.72 $Q
pair_coeff 22 27 0.002 6.24 -1.0 18.72 28
pair_coeff 22 28 0.051858 5.529999999999999 -1.0 16.589999999999996 0.0
pair_coeff 22 29 0.010372 6.32 -1.0 18.96 $Q
pair_coeff 22 29 0.010372 6.32 -1.0 18.96 28
pair_coeff 22 30 0.12823 6.369999999999999 1.0 19.11 0.0
pair_coeff 22 31 0.165945 6.369999999999999 1.0 19.11 0.0
pair_coeff 22 32 0.158402 6.46 -1.0 19.38 $Q
pair_coeff 22 32 0.158402 6.46 -1.0 19.38 28
pair_coeff 22 33 0.080144 6.369999999999999 1.0 19.11 0.0
pair_coeff 22 34 0.161231 6.46 1.0 19.38 0.0
pair_coeff 22 35 0.053744 6.06 -1.0 18.18 0.0
pair_coeff 22 36 0.061287 5.869999999999999 -1.0 17.61 0.0
pair_coeff 22 37 0.034886 6.09 -1.0 18.27 0.0
pair_coeff 22 38 0.107487 6.67 1.0 20.009999999999998 0.0
pair_coeff 22 39 0.083915 6.51 1.0 19.53 0.0
pair_coeff 22 40 0.07543 6.21 1.0 18.63 0.0
pair_coeff 23 23 0.055629 5.68 -1.0 17.04 0.0
pair_coeff 23 24 0.055629 5.63 -1.0 16.89 0.0
pair_coeff 23 25 0.030172 5.58 1.0 16.740000000000002 0.0
pair_coeff 23 26 0.052801 5.85 -1.0 17.549999999999997 0.0
pair_coeff 23 27 0.071658 5.8 -1.0 17.4 0.0
pair_coeff 23 28 0.049972 5.09 -1.0 15.27 0.0
pair_coeff 23 29 0.017915 5.88 -1.0 17.64 0.0
pair_coeff 23 30 0.091458 5.93 1.0 17.79 0.0
pair_coeff 23 31 0.138602 5.93 1.0 17.79 0.0
pair_coeff 23 32 0.099944 6.02 -1.0 18.06 0.0
pair_coeff 23 33 0.064115 5.93 1.0 17.79 0.0
pair_coeff 23 34 0.139545 6.02 1.0 18.06 0.0
pair_coeff 23 35 0.069772 5.619999999999999 -1.0 16.86 0.0
pair_coeff 23 36 0.065058 5.43 -1.0 16.29 0.0
pair_coeff 23 37 0.036772 5.65 -1.0 16.950000000000003 0.0
pair_coeff 23 38 0.07543 6.23 1.0 18.69 0.0
pair_coeff 23 39 0.046201 6.07 1.0 18.21 0.0
pair_coeff 23 40 0.052801 5.77 1.0 17.31 0.0
pair_coeff 24 24 0.099944 5.58 -1.0 16.740000000000002 $Q
pair_coeff 24 24 0.099944 5.58 -1.0 16.740000000000002 28
pair_coeff 24 25 0.0132 5.53 1.0 16.59 0.0
pair_coeff 24 26 0.076372 5.8 -1.0 17.4 0.0
pair_coeff 24 27 0.117859 5.75 -1.0 17.25 $Q
pair_coeff 24 27 0.117859 5.75 -1.0 17.25 28
pair_coeff 24 28 0.064115 5.04 -1.0 15.120000000000001 0.0
pair_coeff 24 29 0.004714 5.83 1.0 17.490000000000002 $Q
pair_coeff 24 29 0.004714 5.83 1.0 17.490000000000002 28
pair_coeff 24 30 0.084858 5.88 1.0 17.64 0.0
pair_coeff 24 31 0.106544 5.88 1.0 17.64 0.0
pair_coeff 24 32 0.055629 5.970000000000001 -1.0 17.910000000000004 $Q
pair_coeff 24 32 0.055629 5.970000000000001 -1.0 17.910000000000004 28
pair_coeff 24 33 0.028286 5.88 1.0 17.64 0.0
pair_coeff 24 34 0.114087 5.970000000000001 1.0 17.910000000000004 0.0
pair_coeff 24 35 0.08863 5.57 -1.0 16.71 0.0
pair_coeff 24 36 0.060344 5.38 -1.0 16.14 0.0
pair_coeff 24 37 0.044315 5.6 -1.0 16.799999999999997 0.0
pair_coeff 24 38 0.053744 6.18 1.0 18.54 0.0
pair_coeff 24 39 0.046201 6.02 1.0 18.06 0.0
pair_coeff 24 40 0.0198 5.720000000000001 1.0 17.160000000000004 0.0
pair_coeff 25 25 0.29889 5.48 1.0 16.44 0.0
pair_coeff 25 26 0.054686 5.75 1.0 17.25 0.0
pair_coeff 25 27 0.002 5.7 -1.0 17.1 0.0
pair_coeff 25 28 0.083915 4.99 1.0 14.97 0.0
pair_coeff 25 29 0.125402 5.78 1.0 17.34 0.0
pair_coeff 25 30 0.304547 5.83 1.0 17.490000000000002 0.0
pair_coeff 25 31 0.335662 5.83 1.0 17.490000000000002 0.0
pair_coeff 25 32 0.030172 5.92 -1.0 17.759999999999998 0.0
pair_coeff 25 33 0.256461 5.83 1.0 17.490000000000002 0.0
pair_coeff 25 34 0.332833 5.92 1.0 17.759999999999998 0.0
pair_coeff 25 35 0.07543 5.52 1.0 16.56 0.0
pair_coeff 25 36 0.055629 5.33 1.0 15.99 0.0
pair_coeff 25 37 0.079201 5.550000000000001 1.0 16.650000000000002 0.0
pair_coeff 25 38 0.252689 6.130000000000001 1.0 18.39 0.0
pair_coeff 25 39 0.178202 5.970000000000001 1.0 17.910000000000004 0.0
pair_coeff 25 40 0.253632 5.67 1.0 17.009999999999998 0.0
pair_coeff 26 26 0.06883 6.02 -1.0 18.06 0.0
pair_coeff 26 27 0.080144 5.97 -1.0 17.91 0.0
pair_coeff 26 28 0.057515 5.26 -1.0 15.78 0.0
pair_coeff 26 29 0.027343 6.05 -1.0 18.15 0.0
pair_coeff 26 30 0.132002 6.1 1.0 18.299999999999997 0.0
pair_coeff 26 31 0.166888 6.1 1.0 18.299999999999997 0.0
pair_coeff 26 32 0.092401 6.1899999999999995 -1.0 18.57 0.0
pair_coeff 26 33 0.097116 6.1 1.0 18.299999999999997 0.0
pair_coeff 26 34 0.172545 6.1899999999999995 1.0 18.57 0.0
pair_coeff 26 35 0.050915 5.789999999999999 -1.0 17.369999999999997 0.0
pair_coeff 26 36 0.073544 5.6 -1.0 16.799999999999997 0.0
pair_coeff 26 37 0.034886 5.82 -1.0 17.46 0.0
pair_coeff 26 38 0.079201 6.4 1.0 19.200000000000003 0.0
pair_coeff 26 39 0.066001 6.24 1.0 18.72 0.0
pair_coeff 26 40 0.07543 5.9399999999999995 1.0 17.82 0.0
pair_coeff 27 27 0.12823 5.92 -1.0 17.759999999999998 $Q
pair_coeff 27 27 0.12823 5.92 -1.0 17.759999999999998 28
pair_coeff 27 28 0.099001 5.21 -1.0 15.629999999999999 0.0
pair_coeff 27 29 0.011314 6.0 -1.0 18.0 $Q
pair_coeff 27 29 0.011314 6.0 -1.0 18.0 28
pair_coeff 27 30 0.094287 6.05 1.0 18.15 0.0
pair_coeff 27 31 0.124459 6.05 1.0 18.15 0.0
pair_coeff 27 32 0.044315 6.140000000000001 -1.0 18.42 $Q
pair_coeff 27 32 0.044315 6.140000000000001 -1.0 18.42 28
pair_coeff 27 33 0.058458 6.05 1.0 18.15 0.0
pair_coeff 27 34 0.12163 6.140000000000001 1.0 18.42 0.0
pair_coeff 27 35 0.09523 5.74 -1.0 17.22 0.0
pair_coeff 27 36 0.074487 5.55 -1.0 16.65 0.0
pair_coeff 27 37 0.049972 5.77 -1.0 17.31 0.0
pair_coeff 27 38 0.067887 6.35 1.0 19.049999999999997 0.0
pair_coeff 27 39 0.049029 6.1899999999999995 1.0 18.57 0.0
pair_coeff 27 40 0.037715 5.890000000000001 1.0 17.67 0.0
pair_coeff 28 28 0.002829 4.5 -1.0 13.5 0.0
pair_coeff 28 29 0.011314 5.29 -1.0 15.870000000000001 0.0
pair_coeff 28 30 0.142373 5.34 1.0 16.02 0.0
pair_coeff 28 31 0.178202 5.34 1.0 16.02 0.0
pair_coeff 28 32 0.105601 5.43 -1.0 16.29 0.0
pair_coeff 28 33 0.105601 5.34 1.0 16.02 0.0
pair_coeff 28 34 0.175374 5.43 1.0 16.29 0.0
pair_coeff 28 35 0.037715 5.029999999999999 -1.0 15.089999999999998 0.0
pair_coeff 28 36 0.042429 4.84 -1.0 14.52 0.0
pair_coeff 28 37 0.017915 5.0600000000000005 -1.0 15.180000000000001 0.0
pair_coeff 28 38 0.10843 5.640000000000001 1.0 16.92 0.0
pair_coeff 28 39 0.069772 5.48 1.0 16.44 0.0
pair_coeff 28 40 0.104659 5.18 1.0 15.54 0.0
pair_coeff 29 29 0.073544 6.08 1.0 18.240000000000002 $Q
pair_coeff 29 29 0.073544 6.08 1.0 18.240000000000002 28
pair_coeff 29 30 0.176317 6.13 1.0 18.39 0.0
pair_coeff 29 31 0.214031 6.13 1.0 18.39 0.0
pair_coeff 29 32 0.086744 6.220000000000001 -1.0 18.660000000000004 $Q
pair_coeff 29 32 0.086744 6.220000000000001 -1.0 18.660000000000004 28
pair_coeff 29 33 0.161231 6.13 1.0 18.39 0.0
pair_coeff 29 34 0.235717 6.220000000000001 1.0 18.660000000000004 0.0
pair_coeff 29 35 0.001886 5.82 -1.0 17.46 0.0
pair_coeff 29 36 0.015086 5.63 -1.0 16.89 0.0
pair_coeff 29 37 0.014143 5.85 1.0 17.549999999999997 0.0
pair_coeff 29 38 0.161231 6.43 1.0 19.29 0.0
pair_coeff 29 39 0.117859 6.27 1.0 18.81 0.0
pair_coeff 29 40 0.123516 5.970000000000001 1.0 17.910000000000004 0.0
pair_coeff 30 30 0.402605 6.18 1.0 18.54 0.0
pair_coeff 30 31 0.449749 6.18 1.0 18.54 0.0
pair_coeff 30 32 0.069772 6.27 1.0 18.81 0.0
pair_coeff 30 33 0.353576 6.18 1.0 18.54 0.0
pair_coeff 30 34 0.430892 6.27 1.0 18.81 0.0
pair_coeff 30 35 0.140488 5.869999999999999 1.0 17.61 0.0
pair_coeff 30 36 0.117859 5.68 1.0 17.04 0.0
pair_coeff 30 37 0.165945 5.9 1.0 17.700000000000003 0.0
pair_coeff 30 38 0.330947 6.48 1.0 19.44 0.0
pair_coeff 30 39 0.280975 6.32 1.0 18.96 0.0
pair_coeff 30 40 0.356405 6.02 1.0 18.06 0.0
pair_coeff 31 31 0.480864 6.18 1.0 18.54 0.0
pair_coeff 31 32 0.103716 6.27 1.0 18.81 0.0
pair_coeff 31 33 0.390348 6.18 1.0 18.54 0.0
pair_coeff 31 34 0.472378 6.27 1.0 18.81 0.0
pair_coeff 31 35 0.181974 5.869999999999999 1.0 17.61 0.0
pair_coeff 31 36 0.155574 5.68 1.0 17.04 0.0
pair_coeff 31 37 0.195174 5.9 1.0 17.700000000000003 0.0
pair_coeff 31 38 0.364891 6.48 1.0 19.44 0.0
pair_coeff 31 39 0.320576 6.32 1.0 18.96 0.0
pair_coeff 31 40 0.396948 6.02 1.0 18.06 0.0
pair_coeff 32 32 0.202717 6.36 -1.0 19.080000000000002 $Q
pair_coeff 32 32 0.202717 6.36 -1.0 19.080000000000002 28
pair_coeff 32 33 0.0198 6.27 1.0 18.81 0.0
pair_coeff 32 34 0.102773 6.36 1.0 19.080000000000002 0.0
pair_coeff 32 35 0.122573 5.96 -1.0 17.88 0.0
pair_coeff 32 36 0.11503 5.77 -1.0 17.31 0.0
pair_coeff 32 37 0.090516 5.99 -1.0 17.97 0.0
pair_coeff 32 38 0.039601 6.57 1.0 19.71 0.0
pair_coeff 32 39 0.031115 6.41 1.0 19.23 0.0
pair_coeff 32 40 0.020743 6.11 1.0 18.330000000000002 0.0
pair_coeff 33 33 0.300776 6.18 1.0 18.54 0.0
pair_coeff 33 34 0.404491 6.27 1.0 18.81 0.0
pair_coeff 33 35 0.111259 5.869999999999999 1.0 17.61 0.0
pair_coeff 33 36 0.071658 5.68 1.0 17.04 0.0
pair_coeff 33 37 0.116916 5.9 1.0 17.700000000000003 0.0
pair_coeff 33 38 0.309261 6.48 1.0 19.44 0.0
pair_coeff 33 39 0.248918 6.32 1.0 18.96 0.0
pair_coeff 33 40 0.287575 6.02 1.0 18.06 0.0
pair_coeff 34 34 0.470492 6.36 1.0 19.080000000000002 0.0
pair_coeff 34 35 0.186688 5.96 1.0 17.88 0.0
pair_coeff 34 36 0.165002 5.77 1.0 17.31 0.0
pair_coeff 34 37 0.189517 5.99 1.0 17.97 0.0
pair_coeff 34 38 0.366776 6.57 1.0 19.71 0.0
pair_coeff 34 39 0.319633 6.41 1.0 19.23 0.0
pair_coeff 34 40 0.379034 6.11 1.0 18.330000000000002 0.0
pair_coeff 35 35 0.049029 5.56 -1.0 16.68 0.0
pair_coeff 35 36 0.066001 5.369999999999999 -1.0 16.11 0.0
pair_coeff 35 37 0.034886 5.59 -1.0 16.77 0.0
pair_coeff 35 38 0.137659 6.17 1.0 18.509999999999998 0.0
pair_coeff 35 39 0.086744 6.01 1.0 18.03 0.0
pair_coeff 35 40 0.099001 5.71 1.0 17.13 0.0
pair_coeff 36 36 0.056572 5.18 -1.0 15.54 0.0
pair_coeff 36 37 0.029229 5.4 -1.0 16.200000000000003 0.0
pair_coeff 36 38 0.067887 5.98 1.0 17.94 0.0
pair_coeff 36 39 0.048086 5.82 1.0 17.46 0.0
pair_coeff 36 40 0.073544 5.52 1.0 16.56 0.0
pair_coeff 37 37 0.014143 5.62 -1.0 16.86 0.0
pair_coeff 37 38 0.089573 6.2 1.0 18.6 0.0
pair_coeff 37 39 0.069772 6.04 1.0 18.12 0.0
pair_coeff 37 40 0.112202 5.74 1.0 17.22 0.0
pair_coeff 38 38 0.263061 6.78 1.0 20.34 0.0
pair_coeff 38 39 0.225346 6.62 1.0 19.86 0.0
pair_coeff 38 40 0.274375 6.32 1.0 18.96 0.0
pair_coeff 39 39 0.179145 6.46 1.0 19.38 0.0
pair_coeff 39 40 0.221574 6.16 1.0 18.48 0.0
pair_coeff 40 40 0.306433 5.86 1.0 17.580000000000002 0.0
pair_coeff 1 41 0.01 8 1.0 24 0.0
pair_coeff 21 41 0.01 8 1.0 24 0.0
pair_coeff 1 42 0.1 4 1.0 12 0.0
pair_coeff 21 42 0.1 4 1.0 12 0.0
pair_coeff 2 41 0.01 8 1.0 24 0.0
pair_coeff 22 41 0.01 8 1.0 24 0.0
pair_coeff 2 42 0.1 4 1.0 12 $Q
pair_coeff 2 42 0.1 4 1.0 12 28
pair_coeff 22 42 0.1 4 1.0 12 $Q
pair_coeff 22 42 0.1 4 1.0 12 28
pair_coeff 3 41 0.01 8 1.0 24 0.0
pair_coeff 23 41 0.01 8 1.0 24 0.0
pair_coeff 3 42 0.1 4 1.0 12 0.0
pair_coeff 23 42 0.1 4 1.0 12 0.0
pair_coeff 4 41 0.01 8 1.0 24 0.0
pair_coeff 24 41 0.01 8 1.0 24 0.0
pair_coeff 4 42 0.1 4 1.0 12 $Q
pair_coeff 4 42 0.1 4 1.0 12 28
pair_coeff 24 42 0.1 4 1.0 12 $Q
pair_coeff 24 42 0.1 4 1.0 12 28
pair_coeff 5 41 0.01 8 1.0 24 0.0
pair_coeff 25 41 0.01 8 1.0 24 0.0
pair_coeff 5 42 0.1 4 1.0 12 0.0
pair_coeff 25 42 0.1 4 1.0 12 0.0
pair_coeff 6 41 0.01 8 1.0 24 0.0
pair_coeff 26 41 0.01 8 1.0 24 0.0
pair_coeff 6 42 0.1 4 1.0 12 0.0
pair_coeff 26 42 0.1 4 1.0 12 0.0
pair_coeff 7 41 0.01 8 1.0 24 0.0
pair_coeff 27 41 0.01 8 1.0 24 0.0
pair_coeff 7 42 0.1 4 1.0 12 $Q
pair_coeff 7 42 0.1 4 1.0 12 28
pair_coeff 27 42 0.1 4 1.0 12 $Q
pair_coeff 27 42 0.1 4 1.0 12 28
pair_coeff 8 41 0.01 8 1.0 24 0.0
pair_coeff 28 41 0.01 8 1.0 24 0.0
pair_coeff 8 42 0.1 4 1.0 12 0.0
pair_coeff 28 42 0.1 4 1.0 12 0.0
pair_coeff 9 41 0.01 8 1.0 24 0.0
pair_coeff 29 41 0.01 8 1.0 24 0.0
pair_coeff 9 42 0.1 4 1.0 12 $Q
pair_coeff 9 42 0.1 4 1.0 12 28
pair_coeff 29 42 0.1 4 1.0 12 $Q
pair_coeff 29 42 0.1 4 1.0 12 28
pair_coeff 10 41 0.01 8 1.0 24 0.0
pair_coeff 30 41 0.01 8 1.0 24 0.0
pair_coeff 10 42 0.1 4 1.0 12 0.0
pair_coeff 30 42 0.1 4 1.0 12 0.0
pair_coeff 11 41 0.01 8 1.0 24 0.0
pair_coeff 31 41 0.01 8 1.0 24 0.0
pair_coeff 11 42 0.1 4 1.0 12 0.0
pair_coeff 31 42 0.1 4 1.0 12 0.0
pair_coeff 12 41 0.01 8 1.0 24 0.0
pair_coeff 32 41 0.01 8 1.0 24 0.0
pair_coeff 12 42 0.1 4 1.0 12 $Q
pair_coeff 12 42 0.1 4 1.0 12 28
pair_coeff 32 42 0.1 4 1.0 12 $Q
pair_coeff 32 42 0.1 4 1.0 12 28
pair_coeff 13 41 0.01 8 1.0 24 0.0
pair_coeff 33 41 0.01 8 1.0 24 0.0
pair_coeff 13 42 0.1 4 1.0 12 0.0
pair_coeff 33 42 0.1 4 1.0 12 0.0
pair_coeff 14 41 0.01 8 1.0 24 0.0
pair_coeff 34 41 0.01 8 1.0 24 0.0
pair_coeff 14 42 0.1 4 1.0 12 0.0
pair_coeff 34 42 0.1 4 1.0 12 0.0
pair_coeff 15 41 0.01 8 1.0 24 0.0
pair_coeff 35 41 0.01 8 1.0 24 0.0
pair_coeff 15 42 0.1 4 1.0 12 0.0
pair_coeff 35 42 0.1 4 1.0 12 0.0
pair_coeff 16 41 0.01 8 1.0 24 0.0
pair_coeff 36 41 0.01 8 1.0 24 0.0
pair_coeff 16 42 0.1 4 1.0 12 0.0
pair_coeff 36 42 0.1 4 1.0 12 0.0
pair_coeff 17 41 0.01 8 1.0 24 0.0
pair_coeff 37 41 0.01 8 1.0 24 0.0
pair_coeff 17 42 0.1 4 1.0 12 0.0
pair_coeff 37 42 0.1 4 1.0 12 0.0
pair_coeff 18 41 0.01 8 1.0 24 0.0
pair_coeff 38 41 0.01 8 1.0 24 0.0
pair_coeff 18 42 0.1 4 1.0 12 0.0
pair_coeff 38 42 0.1 4 1.0 12 0.0
pair_coeff 19 41 0.01 8 1.0 24 0.0
pair_coeff 39 41 0.01 8 1.0 24 0.0
pair_coeff 19 42 0.1 4 1.0 12 0.0
pair_coeff 39 42 0.1 4 1.0 12 0.0
pair_coeff 20 41 0.01 8 1.0 24 0.0
pair_coeff 40 41 0.01 8 1.0 24 0.0
pair_coeff 20 42 0.1 4 1.0 12 0.0
pair_coeff 40 42 0.1 4 1.0 12 0.0
pair_coeff         41     41        0.0   0.0      0.0       0.0     0.000
pair_coeff         41     42        0.0   0.0      0.0       0.0     0.000
pair_coeff         42     42        0.0   0.0      0.0       0.0 $Q
pair_coeff         42     42        0.0   0.0      0.0       0.0 28
special_bonds fene
  14 = max # of 1-2 neighbors
  112 = max # of special neighbors
  special bonds CPU = 0.00074038 secs
neighbor 10 bin
group nucl id 41:135 161:237 258:350 391:487 528:622 648:724 745:837 878:974
724 atoms in group nucl
group dna type 41
211 atoms in group dna
group ps type 42
422 atoms in group ps
group dna_all union dna ps
633 atoms in group dna_all
group notdna subtract all dna_all
974 atoms in group notdna
neigh_modify exclude molecule/intra nucl
neigh_modify exclude molecule/intra dna_all
neigh_modify exclude type 41 42
neigh_modify exclude type 41 41
variable ex equal "sqrt((x[975] - x[1605])^2 + (y[975] - y[1605])^2 + (z[975] - z[1605])^2)"
group end1 id 975
1 atoms in group end1
group end2 id 1605
1 atoms in group end2
group P1 id 976
1 atoms in group P1
group P2 id 977
1 atoms in group P2
group p3 id 1606
1 atoms in group p3
group p4 id 1607
1 atoms in group p4
compute q dna property/atom quatw quati quatj quatk
compute shape dna property/atom shapex shapey shapez


dump	  1 all custom 1000 dna.dump 	     id x y z c_q[1] c_q[2] c_q[3] c_q[4] 	      c_shape[1] c_shape[2] c_shape[3] mol q type

dump_modify 1 sort id

comm_style tiled

thermo_style	custom step temp pe epair ebond ke etotal spcpu
thermo 1000

fix bl all balance 1000 1.0 rcb



fix bl all balance 1000 1.0 rcb

# minimize first

fix 1 notdna nve
fix 2 notdna viscous 1000000.0

#fix spring1

timestep 0.0001

run 1000
Neighbor list info ...
  update every 1 steps, delay 10 steps, check yes
  max neighbors/atom: 2000, page size: 100000
  master list distance cutoff = 38
  ghost atom cutoff = 38
  binsize = 19, bins = 7 9 5
  1 neighbor lists, perpetual/occasional/extra = 1 0 0
  (1) pair ljlambda, perpetual
      attributes: half, newton on
      pair build: half/bin/newton
      stencil: half/bin/3d/newton
      bin: standard
Per MPI rank memory allocation (min/avg/max) = 17.25 | 17.25 | 17.25 Mbytes
Step Temp PotEng E_pair E_bond KinEng TotEng S/CPU 
       0            0    669.95641    164.51621    505.44021            0    669.95641            0 
    1000 7.0079377e-05    669.95599    164.51582    505.44017 0.00033548266    669.95632    517.54817 
Loop time of 1.93221 on 1 procs for 1000 steps with 1607 atoms

Performance: 0.004 ns/day, 5367.264 hours/ns, 517.541 timesteps/s
99.3% CPU use with 1 MPI tasks x no OpenMP threads

MPI task timing breakdown:
Section |  min time  |  avg time  |  max time  |%varavg| %total
---------------------------------------------------------------
Pair    | 0.96059    | 0.96059    | 0.96059    |   0.0 | 49.71
Bond    | 0.94374    | 0.94374    | 0.94374    |   0.0 | 48.84
Neigh   | 0.0059354  | 0.0059354  | 0.0059354  |   0.0 |  0.31
Comm    | 0.00028836 | 0.00028836 | 0.00028836 |   0.0 |  0.01
Output  | 0.004281   | 0.004281   | 0.004281   |   0.0 |  0.22
Modify  | 0.012328   | 0.012328   | 0.012328   |   0.0 |  0.64
Other   |            | 0.005046   |            |       |  0.26

Nlocal:    1607 ave 1607 max 1607 min
Histogram: 1 0 0 0 0 0 0 0 0 0
Nghost:    0 ave 0 max 0 min
Histogram: 1 0 0 0 0 0 0 0 0 0
Neighs:    84172 ave 84172 max 84172 min
Histogram: 1 0 0 0 0 0 0 0 0 0

Total # of neighbors = 84172
Ave neighs/atom = 52.3783
Ave special neighs/atom = 5.64157
Neighbor list builds = 1
Dangerous builds = 0


timestep 0.001

run 1000
Per MPI rank memory allocation (min/avg/max) = 17.25 | 17.25 | 17.25 Mbytes
Step Temp PotEng E_pair E_bond KinEng TotEng S/CPU 
    1000 7.0079377e-05    669.95599    164.51582    505.44017 0.00033548266    669.95632            0 
    2000 0.00077858795    669.93441    164.49568    505.43874 0.0037272414    669.93814    521.81349 
Loop time of 1.91641 on 1 procs for 1000 steps with 1607 atoms

Performance: 0.045 ns/day, 532.337 hours/ns, 521.808 timesteps/s
100.0% CPU use with 1 MPI tasks x no OpenMP threads

MPI task timing breakdown:
Section |  min time  |  avg time  |  max time  |%varavg| %total
---------------------------------------------------------------
Pair    | 0.95206    | 0.95206    | 0.95206    |   0.0 | 49.68
Bond    | 0.93694    | 0.93694    | 0.93694    |   0.0 | 48.89
Neigh   | 0.006166   | 0.006166   | 0.006166   |   0.0 |  0.32
Comm    | 0.00024384 | 0.00024384 | 0.00024384 |   0.0 |  0.01
Output  | 0.0038482  | 0.0038482  | 0.0038482  |   0.0 |  0.20
Modify  | 0.012175   | 0.012175   | 0.012175   |   0.0 |  0.64
Other   |            | 0.004978   |            |       |  0.26

Nlocal:    1607 ave 1607 max 1607 min
Histogram: 1 0 0 0 0 0 0 0 0 0
Nghost:    0 ave 0 max 0 min
Histogram: 1 0 0 0 0 0 0 0 0 0
Neighs:    84172 ave 84172 max 84172 min
Histogram: 1 0 0 0 0 0 0 0 0 0

Total # of neighbors = 84172
Ave neighs/atom = 52.3783
Ave special neighs/atom = 5.64157
Neighbor list builds = 1
Dangerous builds = 0


timestep 0.01

run 1000
Per MPI rank memory allocation (min/avg/max) = 17.25 | 17.25 | 17.25 Mbytes
Step Temp PotEng E_pair E_bond KinEng TotEng S/CPU 
    2000 0.00077858795    669.93441    164.49568    505.43874 0.0037272414    669.93814            0 
    3000 0.00081899754    669.66578    164.24365    505.42214 0.0039206894    669.66971    522.42497 
Loop time of 1.91416 on 1 procs for 1000 steps with 1607 atoms

Performance: 0.451 ns/day, 53.171 hours/ns, 522.422 timesteps/s
100.0% CPU use with 1 MPI tasks x no OpenMP threads

MPI task timing breakdown:
Section |  min time  |  avg time  |  max time  |%varavg| %total
---------------------------------------------------------------
Pair    | 0.95365    | 0.95365    | 0.95365    |   0.0 | 49.82
Bond    | 0.93357    | 0.93357    | 0.93357    |   0.0 | 48.77
Neigh   | 0.0057037  | 0.0057037  | 0.0057037  |   0.0 |  0.30
Comm    | 0.00024537 | 0.00024537 | 0.00024537 |   0.0 |  0.01
Output  | 0.0038381  | 0.0038381  | 0.0038381  |   0.0 |  0.20
Modify  | 0.012164   | 0.012164   | 0.012164   |   0.0 |  0.64
Other   |            | 0.00499    |            |       |  0.26

Nlocal:    1607 ave 1607 max 1607 min
Histogram: 1 0 0 0 0 0 0 0 0 0
Nghost:    0 ave 0 max 0 min
Histogram: 1 0 0 0 0 0 0 0 0 0
Neighs:    84172 ave 84172 max 84172 min
Histogram: 1 0 0 0 0 0 0 0 0 0

Total # of neighbors = 84172
Ave neighs/atom = 52.3783
Ave special neighs/atom = 5.64157
Neighbor list builds = 1
Dangerous builds = 0


unfix 2


fix 2 notdna viscous 10000.0


timestep 0.1

run 1000
Per MPI rank memory allocation (min/avg/max) = 17.25 | 17.25 | 17.25 Mbytes
Step Temp PotEng E_pair E_bond KinEng TotEng S/CPU 
    3000 0.00081899754    669.66578    164.24365    505.42214 0.0039206894    669.66971            0 
    4000    1.6921031    588.49419    88.743645    499.75055    8.1004038     596.5946    514.33348 
Loop time of 1.94429 on 1 procs for 1000 steps with 1607 atoms

Performance: 4.444 ns/day, 5.401 hours/ns, 514.328 timesteps/s
100.0% CPU use with 1 MPI tasks x no OpenMP threads

MPI task timing breakdown:
Section |  min time  |  avg time  |  max time  |%varavg| %total
---------------------------------------------------------------
Pair    | 0.96473    | 0.96473    | 0.96473    |   0.0 | 49.62
Bond    | 0.95038    | 0.95038    | 0.95038    |   0.0 | 48.88
Neigh   | 0.0060629  | 0.0060629  | 0.0060629  |   0.0 |  0.31
Comm    | 0.00040995 | 0.00040995 | 0.00040995 |   0.0 |  0.02
Output  | 0.0041177  | 0.0041177  | 0.0041177  |   0.0 |  0.21
Modify  | 0.012664   | 0.012664   | 0.012664   |   0.0 |  0.65
Other   |            | 0.005921   |            |       |  0.30

Nlocal:    1607 ave 1607 max 1607 min
Histogram: 1 0 0 0 0 0 0 0 0 0
Nghost:    0 ave 0 max 0 min
Histogram: 1 0 0 0 0 0 0 0 0 0
Neighs:    84164 ave 84164 max 84164 min
Histogram: 1 0 0 0 0 0 0 0 0 0

Total # of neighbors = 84164
Ave neighs/atom = 52.3734
Ave special neighs/atom = 5.64157
Neighbor list builds = 1
Dangerous builds = 0

timestep 5.0

run 1000
Per MPI rank memory allocation (min/avg/max) = 17.25 | 17.25 | 17.25 Mbytes
Step Temp PotEng E_pair E_bond KinEng TotEng S/CPU 
    4000    1.6921031    588.49419    88.743645    499.75055    8.1004038     596.5946            0 
    5000 0.0084095303    477.49792   -10.084575     487.5825  0.040257943    477.53818    517.62448 
Loop time of 1.93192 on 1 procs for 1000 steps with 1607 atoms

Performance: 223.611 ns/day, 0.107 hours/ns, 517.619 timesteps/s
100.0% CPU use with 1 MPI tasks x no OpenMP threads

MPI task timing breakdown:
Section |  min time  |  avg time  |  max time  |%varavg| %total
---------------------------------------------------------------
Pair    | 0.96037    | 0.96037    | 0.96037    |   0.0 | 49.71
Bond    | 0.94365    | 0.94365    | 0.94365    |   0.0 | 48.85
Neigh   | 0.0059541  | 0.0059541  | 0.0059541  |   0.0 |  0.31
Comm    | 0.00035467 | 0.00035467 | 0.00035467 |   0.0 |  0.02
Output  | 0.0041406  | 0.0041406  | 0.0041406  |   0.0 |  0.21
Modify  | 0.012312   | 0.012312   | 0.012312   |   0.0 |  0.64
Other   |            | 0.00514    |            |       |  0.27

Nlocal:    1607 ave 1607 max 1607 min
Histogram: 1 0 0 0 0 0 0 0 0 0
Nghost:    0 ave 0 max 0 min
Histogram: 1 0 0 0 0 0 0 0 0 0
Neighs:    84134 ave 84134 max 84134 min
Histogram: 1 0 0 0 0 0 0 0 0 0

Total # of neighbors = 84134
Ave neighs/atom = 52.3547
Ave special neighs/atom = 5.64157
Neighbor list builds = 1
Dangerous builds = 0

timestep 10.0

run 1000
Per MPI rank memory allocation (min/avg/max) = 17.25 | 17.25 | 17.25 Mbytes
Step Temp PotEng E_pair E_bond KinEng TotEng S/CPU 
    5000 0.0084095303    477.49792   -10.084575     487.5825  0.040257943    477.53818            0 
    6000 0.0023772172    462.92402   -24.201098    487.12512  0.011380169     462.9354    512.01112 
Loop time of 1.9531 on 1 procs for 1000 steps with 1607 atoms

Performance: 442.373 ns/day, 0.054 hours/ns, 512.006 timesteps/s
100.0% CPU use with 1 MPI tasks x no OpenMP threads

MPI task timing breakdown:
Section |  min time  |  avg time  |  max time  |%varavg| %total
---------------------------------------------------------------
Pair    | 0.97134    | 0.97134    | 0.97134    |   0.0 | 49.73
Bond    | 0.95255    | 0.95255    | 0.95255    |   0.0 | 48.77
Neigh   | 0.0062228  | 0.0062228  | 0.0062228  |   0.0 |  0.32
Comm    | 0.00035599 | 0.00035599 | 0.00035599 |   0.0 |  0.02
Output  | 0.0040529  | 0.0040529  | 0.0040529  |   0.0 |  0.21
Modify  | 0.012741   | 0.012741   | 0.012741   |   0.0 |  0.65
Other   |            | 0.005836   |            |       |  0.30

Nlocal:    1607 ave 1607 max 1607 min
Histogram: 1 0 0 0 0 0 0 0 0 0
Nghost:    0 ave 0 max 0 min
Histogram: 1 0 0 0 0 0 0 0 0 0
Neighs:    84155 ave 84155 max 84155 min
Histogram: 1 0 0 0 0 0 0 0 0 0

Total # of neighbors = 84155
Ave neighs/atom = 52.3678
Ave special neighs/atom = 5.64157
Neighbor list builds = 1
Dangerous builds = 0

unfix 1
unfix 2


fix 1 notdna nve
fix 2 notdna langevin 300.0 300.0 1000.0 123 gjf yes
fix 3 dna_all rigid/nve/small molecule
  create bodies CPU = 0.000232844 secs
211 rigid bodies with 633 atoms
  8.5 = max distance from body owner to body atom
fix 4 dna langevin 300.0 300.0 1000.0 123 angmom 3.0


#fix C all recenter INIT INIT INIT

run 10000
Per MPI rank memory allocation (min/avg/max) = 21.33 | 21.33 | 21.33 Mbytes
Step Temp PotEng E_pair E_bond KinEng TotEng S/CPU 
    6000 0.0032245024    462.92402   -24.201098    487.12512  0.011380169     462.9354            0 
    7000    299.32018    1079.1557   -42.648017    1121.8037    1056.3844    2135.5402    449.87233 
    8000    293.62825    1100.6978   -41.391927    1142.0897    1036.2961    2136.9938    453.31153 
    9000    287.38143    1060.6757   -46.082939    1106.7586    1014.2493    2074.9249    447.56484 
   10000    300.36542    1009.5351   -49.424003    1058.9591    1060.0734    2069.6085    449.35259 
   11000    291.41203    1023.4822   -54.537121    1078.0194    1028.4744    2051.9566    446.53343 
   12000    293.33652     1008.072   -53.683973     1061.756    1035.2665    2043.3384    450.36859 
   13000    289.75221    1113.7665   -59.338917    1173.1054    1022.6164    2136.3829    450.91736 
   14000    302.05815    1060.8035   -55.727472     1116.531    1066.0475    2126.8511    449.78317 
   15000    290.26243    1055.3744   -51.395114    1106.7695    1024.4171    2079.7916    456.32804 
   16000    295.14475    1031.2277   -53.548372     1084.776    1041.6482    2072.8759    452.59666 
Loop time of 22.1904 on 1 procs for 10000 steps with 1607 atoms

Performance: 389.358 ns/day, 0.062 hours/ns, 450.646 timesteps/s
100.0% CPU use with 1 MPI tasks x no OpenMP threads

MPI task timing breakdown:
Section |  min time  |  avg time  |  max time  |%varavg| %total
---------------------------------------------------------------
Pair    | 10.122     | 10.122     | 10.122     |   0.0 | 45.62
Bond    | 9.5123     | 9.5123     | 9.5123     |   0.0 | 42.87
Neigh   | 0.57805    | 0.57805    | 0.57805    |   0.0 |  2.60
Comm    | 0.0073579  | 0.0073579  | 0.0073579  |   0.0 |  0.03
Output  | 0.039104   | 0.039104   | 0.039104   |   0.0 |  0.18
Modify  | 1.8666     | 1.8666     | 1.8666     |   0.0 |  8.41
Other   |            | 0.06459    |            |       |  0.29

Nlocal:    1607 ave 1607 max 1607 min
Histogram: 1 0 0 0 0 0 0 0 0 0
Nghost:    0 ave 0 max 0 min
Histogram: 1 0 0 0 0 0 0 0 0 0
Neighs:    86045 ave 86045 max 86045 min
Histogram: 1 0 0 0 0 0 0 0 0 0

Total # of neighbors = 86045
Ave neighs/atom = 53.5439
Ave special neighs/atom = 5.64157
Neighbor list builds = 85
Dangerous builds = 0

timestep 10.0

#reset_timestep 0


fix 2 notdna langevin 300.0 300.0 100000.0 123 gjf yes
fix 4 dna langevin 300.0 300.0 100000.0 123 angmom 3.0

timestep 40.0

run 1000000000
Per MPI rank memory allocation (min/avg/max) = 21.33 | 21.33 | 21.33 Mbytes
Step Temp PotEng E_pair E_bond KinEng TotEng S/CPU 
   16000    295.14475    1031.2277   -53.548372     1084.776    1041.6482    2072.8759            0 
   17000    278.91925    1065.2719   -58.815449    1124.0873    984.38387    2049.6557    406.74367 
   18000    277.09068    1038.9535   -57.832764    1096.7863    977.93036    2016.8839    410.81033 
   19000    273.83648    1009.7902   -71.776981    1081.5672    966.44538    1976.2356    399.21619 
   20000    274.87926    1060.8931   -72.373501    1133.2666    970.12561    2031.0187    398.93482 
   21000    281.80481     1050.337   -77.908938    1128.2459    994.56784    2044.9048    403.65199 
   22000    276.15843    1088.2954    -73.57075    1161.8662    974.64017    2062.9356    390.13218 
   23000     279.2436     1085.009    -70.06859    1155.0776    985.52862    2070.5376    394.89655 
   24000    283.00664    1089.5887   -58.278257     1147.867    998.80941    2088.3981    391.21255 
   25000    285.65215    1042.3575   -62.235134    1104.5927    1008.1462    2050.5037    393.59015 
   26000     279.8157    1035.9239   -65.098865    1101.0228     987.5477    2023.4716    395.95119 
   27000    281.17039    1035.2303   -77.145582    1112.3759    992.32878    2027.5591    399.24836 
   28000    289.15044    1035.0201   -75.736804    1110.7569    1020.4926    2055.5127    383.72256 
   29000    279.28921    1064.8569   -72.280999    1137.1379    985.68955    2050.5464    389.88379 
   30000    277.97877    1092.4327   -59.370023    1151.8027    981.06468    2073.4974    384.12833 
   31000    277.99407    1117.7219   -58.805851    1176.5278    981.11865    2098.8406    398.53246 
   32000    295.65536    1060.1908   -62.217428    1122.4083    1043.4503    2103.6411    398.01268 
   33000    291.49065    1024.6613   -72.401018    1097.0623    1028.7519    2053.4132    400.24884 
   34000    291.22142    1070.4696   -71.059511    1141.5292    1027.8017    2098.2713    394.46235 
   35000    279.64536    1054.5879   -58.159731    1112.7476    986.94651    2041.5344    401.25289 
   36000    281.49788    1062.2149   -59.749772    1121.9646    993.48459    2055.6995    407.91705 
   37000     290.4795    1070.6865   -60.395762    1131.0822    1025.1832    2095.8697    395.03888 
   38000    284.83434    1013.5666   -70.763038    1084.3296    1005.2599    2018.8265    400.98653 
   39000    286.45639    1001.9265    -74.09773    1076.0242    1010.9845     2012.911    405.03857 
   40000    277.06317    1028.7469   -65.286655    1094.0335    977.83327    2006.5801    401.61497 
   41000    289.44085    1028.5416   -81.231544    1109.7732    1021.5175    2050.0592    398.20764 
   42000    292.39449    1019.9759   -76.554119      1096.53    1031.9418    2051.9176    399.33745 
   43000    280.08766    1046.7625   -87.311053    1134.0735    988.50754      2035.27     389.2299 
   44000    283.30508     1057.441   -72.335114    1129.7761     999.8627    2057.3037    395.61235 
   45000    280.22839    1050.0069   -73.699462    1123.7064    989.00419    2039.0111    398.72057 
   46000     282.3912    1053.3224   -76.745836    1130.0683    996.63737    2049.9598    401.74909 
   47000    273.01448    1040.5488   -80.253943    1120.8027    963.54429    2004.0931    405.56183 
   48000    286.62174    1022.5935   -89.434217    1112.0277    1011.5681    2034.1616    407.22013 
   49000     284.3034    1060.8021   -80.154215    1140.9564    1003.3861    2064.1882    393.36208 
   50000    281.65707    1055.0012   -84.528531    1139.5297    994.04642    2049.0476    377.45207 
   51000    278.98906    1059.0315   -75.902818    1134.9343    984.63027    2043.6617    403.37144 
   52000    275.18515    1048.3211   -83.943981    1132.2651    971.20519    2019.5263    392.54406 
   53000    284.09687    1069.4198   -77.934901    1147.3547    1002.6571     2072.077    394.35959 
   54000     289.0031    1020.8935   -83.470814    1104.3643    1019.9726    2040.8661    387.08379 
   55000    273.44485    1061.4756    -75.17121    1136.6468    965.06319    2026.5388    396.02373 
   56000    286.11505    1071.3407   -68.076267     1139.417    1009.7799    2081.1206     390.3151 
   57000    285.44324    1065.3034   -82.416229    1147.7196    1007.4089    2072.7123    392.97866 
   58000    285.71569    1073.5034   -80.978497    1154.4819    1008.3704    2081.8738    391.42202 
   59000    285.17693    978.01709   -81.459589    1059.4767     1006.469    1984.4861    395.51565 
   60000    276.98969    1041.3659   -80.770317    1122.1362    977.57391    2018.9398    394.16279 
   61000    272.40974    1025.2784   -79.425505    1104.7039    961.40999    1986.6884    399.58979 
   62000     272.6878    1027.4214   -74.775377    1102.1968    962.39136    1989.8128    398.88897 
   63000    281.30947    1030.9765   -77.039264    1108.0158    992.81964    2023.7962    393.68748 
   64000    275.09195    985.64694   -71.617365    1057.2643    970.87628    1956.5232    401.53987 
   65000     268.2664    1022.7738   -91.987678    1114.7615    946.78701    1969.5608    396.56838 
   66000    279.08473    965.07294   -81.608766    1046.6817    984.96791    1950.0409    394.73163 
   67000    276.28097    999.48174   -90.305836    1089.7876    975.07265    1974.5544    399.15661 
   68000    271.40289    987.77083     -75.6035    1063.3743    957.85656    1945.6274     399.1308 
   69000    274.07021    1063.3084   -67.441988    1130.7504    967.27025    2030.5786    405.43703 
   70000    282.69641    1016.6353   -66.633067    1083.2684    997.71454    2014.3499    403.18166 
   71000    283.58807    1064.1934   -65.411721    1129.6051    1000.8614    2065.0549    395.34746 
   72000    270.40957    1059.1123   -76.663574    1135.7759    954.35085    2013.4632    402.53529 
   73000     289.2625     1093.538   -77.538004     1171.076    1020.8881    2114.4261    394.04705 
   74000    296.22668    1035.7075   -77.481971    1113.1895    1045.4666    2081.1742    395.95858 
   75000    288.76124    1082.6876   -77.097272    1159.7848     1019.119    2101.8066    394.41047 
   76000     289.4763    1083.9731   -66.976345    1150.9495    1021.6426    2105.6158    396.05583 
   77000    288.45216    1060.7687   -58.646794    1119.4155    1018.0282    2078.7969    393.00149 
   78000    286.81382    1068.0145   -77.495038    1145.5096     1012.246    2080.2605    388.67002 
   79000    280.46741    1052.6184   -78.182513    1130.8009    989.84777    2042.4662    380.73953 
   80000    287.95766    1052.2747   -74.534528    1126.8092     1016.283    2068.5576    387.79743 
   81000    279.59173    1059.4212   -86.035842    1145.4571    986.75723    2046.1785    390.68492 
   82000    275.49129    1041.7674    -100.2837    1142.0511    972.28564    2014.0531    381.95863 
   83000    284.45556    985.21535   -100.52771    1085.7431    1003.9231    1989.1384    384.79986 
   84000    282.15771    1019.2756   -84.612455     1103.888     995.8133    2015.0889    388.17009 
   85000    281.22369    1035.5097   -99.315704    1134.8254    992.51689    2028.0266    395.66609 
   86000    275.87076    1024.3084   -88.564182    1112.8726    973.62489    1997.9333    397.83604 
   87000    279.08203    1007.1668   -84.648207     1091.815    984.95838    1992.1252    392.25322 
   88000    281.61909    1046.5353   -65.087702    1111.6231    993.91238    2040.4477    397.13314 
   89000     280.9307    1031.9213   -86.202779     1118.124    991.48284    2023.4041    380.63833 
   90000    275.26397    1012.6037   -75.748466    1088.3522    971.48338    1984.0871    379.41992 
   91000    267.86397     1057.065   -82.806294    1139.8713    945.36673    2002.4317    379.24427 
   92000    277.14434    1009.8657   -81.970822    1091.8365    978.11974    1987.9855    377.99485 
   93000     279.1375     1026.377   -81.417669    1107.7947    985.15414    2011.5312    402.77525 
   94000    272.48251    1068.1035   -78.744957    1146.8485    961.66684    2029.7704    393.53086 
   95000    277.79812    966.54105   -77.023855    1043.5649    980.42711    1946.9682      391.963 
   96000    284.53185    997.31949   -89.425702    1086.7452    1004.1923    2001.5118    390.93049 
   97000    281.68639    1028.9173   -84.474649     1113.392    994.14988    2023.0672    362.67405 
   98000    279.15116    1016.6902   -87.968907    1104.6591    985.20235    2001.8926    388.99153 
   99000    275.76369    1043.6476   -85.347413     1128.995    973.24702    2016.8946    399.70424 
  100000    283.66863    1066.8975   -90.634283    1157.5318    1001.1458    2068.0433     393.0707 
  101000    278.09616    1065.1146   -80.080662    1145.1953    981.47895    2046.5936    389.98646 
  102000    290.32596    1024.8389   -92.397304    1117.2362    1024.6413    2049.4803    379.75077 
  103000    285.01346    1039.7278   -88.460056    1128.1878    1005.8921    2045.6198    381.32073 
  104000    284.94557    1084.6662   -76.270133    1160.9363    1005.6525    2090.3187     386.9776 
  105000    276.66107    1052.8548   -81.941807    1134.7966    976.41414    2029.2689    398.11646 
  106000    286.76793    1109.8218   -80.600622    1190.4224    1012.0841    2121.9059    386.83489 
  107000    289.27974    1036.8571   -75.170622    1112.0277    1020.9489    2057.8061    395.31211 
  108000    285.54097    982.86752   -87.883017    1070.7505    1007.7538    1990.6213    374.47251 
  109000      282.137    1015.4726   -83.558818    1099.0314    995.74021    2011.2128    383.15742 
  110000    273.76919    1060.4392   -78.464335    1138.9035    966.20788    2026.6471    384.72053 
  111000    286.26957    1045.3149   -86.202145     1131.517    1010.3252    2055.6401    384.86654 
  112000    285.67075    1083.7206   -92.508076    1176.2287    1008.2118    2091.9324     372.9911 
  113000    291.66043    1109.3062   -72.124767     1181.431     1029.351    2138.6573    381.68134 
  114000    284.41912    1089.7889   -64.149926    1153.9388    1003.7945    2093.5833    388.02037 
  115000    289.48836    1035.8294   -94.742788    1130.5722    1021.6852    2057.5146    382.06901 
  116000    272.93892    1028.4908   -93.410505    1121.9013    963.27763    1991.7684    380.10808 
  117000    270.99172    1013.8614   -83.398729    1097.2601    956.40541    1970.2668    383.95389 
  118000    269.15146    1008.3938   -82.786246    1091.1801    949.91061    1958.3044    387.48163 
  119000    278.43018    1030.0961   -88.010745    1118.1069    982.65781    2012.7539    386.93528 
  120000    282.47428    1052.8117   -90.852003    1143.6637    996.93058    2049.7423     386.5312 
  121000    286.04843    1013.2866   -84.245494    1097.5321    1009.5448    2022.8314    379.16957 
  122000     281.8472    1054.8811   -88.457853    1143.3389    994.71744    2049.5985    386.99189 
  123000    282.66396    1049.3367   -92.161168    1141.4979    997.60002    2046.9367    378.01616 
  124000    273.84467    1048.3113    -85.64715    1133.9585    966.47425    2014.7856    374.85881 
  125000     281.6331    1002.1555   -79.870429     1082.026     993.9618    1996.1173    389.97713 
  126000    278.37403    1055.2762   -81.267753     1136.544    982.45965    2037.7359    383.37199 
  127000      283.519      1059.74   -80.402788    1140.1428    1000.6177    2060.3576    384.95945 
  128000    293.64746    1029.6841   -75.548931     1105.233    1036.3638    2066.0479    392.81906 
  129000    285.43636    1087.4731   -72.064936     1159.538    1007.3846    2094.8577    397.54347 
  130000    288.05589    1050.6287   -77.893127    1128.5218    1016.6296    2067.2583    391.77165 
  131000    284.10101    1052.0449    -75.82223    1127.8671    1002.6718    2054.7166    391.70213 
  132000    279.16173    1038.2495   -73.763577    1112.0131    985.23965    2023.4892    389.22807 
  133000    294.85568    1078.1444   -79.292856    1157.4372     1040.628    2118.7724    388.68696 
  134000    286.76047    1048.3645   -66.940071    1115.3046    1012.0578    2060.4222    384.99815 
  135000    279.17356    1085.8101   -75.846312    1161.6564    985.28141    2071.0915    395.47764 
  136000    289.15664    1019.2388   -86.402919    1105.6418    1020.5145    2039.7533    395.02442 
  137000    280.10177    1069.7939   -86.028139     1155.822    988.55733    2058.3512    391.17644 
  138000    289.80612    1059.0839   -84.884968    1143.9689    1022.8067    2081.8906    382.68502 
  139000    280.21964    1073.6555   -85.875771    1159.5313    988.97331    2062.6289    380.67573 
  140000    285.31451    991.37121   -103.66855    1095.0398    1006.9545    1998.3257    383.48441 
  141000    276.23977    1017.2424   -88.498152    1105.7406    974.92724    1992.1697    380.08846 
  142000    270.91735    1005.9022   -98.168987    1104.0712    956.14295    1962.0452    380.84605 
  143000    274.83362    961.12106   -103.59616    1064.7172    969.96456    1931.0856    373.96008 
  144000    269.69959    967.97295    -90.09692    1058.0699    951.84513    1919.8181     383.2453 
  145000    270.66435    1049.4263   -69.142016    1118.5683    955.25003    2004.6763    370.24249 
  146000    286.83021    1017.5984   -98.407752    1116.0061    1012.3039    2029.9022    374.32632 
  147000    286.85698    1017.5234   -81.557826    1099.0812    1012.3983    2029.9217    378.47047 
  148000    283.47574     1065.139   -89.067507    1154.2065     1000.465     2065.604    378.88844 
  149000    283.84281    1050.9963   -97.228902    1148.2252    1001.7605    2052.7568    388.73339 
  150000    290.05721    1039.6528   -78.606685    1118.2595    1023.6928    2063.3456     378.1339 
  151000     287.5332    1044.2311   -84.493644    1128.7248    1014.7849     2059.016    370.38445 
  152000    287.72458    1072.5991   -86.437977    1159.0371    1015.4603    2088.0595    365.10275 
  153000    288.70652    1052.9266    -72.58585    1125.5125    1018.9259    2071.8525    378.78118 
  154000    291.85113    1059.8348   -76.151696    1135.9865    1030.0241    2089.8589     373.3992 
  155000    298.15562    995.91237   -83.501222    1079.4136    1052.2744    2048.1868    382.88419 
  156000    288.99399    1053.7878   -78.278965    1132.0668    1019.9404    2073.7282    381.84569 
  157000    283.21321    1040.8703   -89.859854    1130.7301    999.53846    2040.4087    388.55547 
  158000    280.87232    1035.7772   -78.787029    1114.5643    991.27682     2027.054    375.89165 
  159000    281.50759    1049.1664   -69.641632    1118.8081    993.51887    2042.6853    376.47406 
  160000    283.40379    1044.4417   -79.962252     1124.404    1000.2111    2044.6528    394.96508 
  161000    281.37887    1037.0157   -105.98889    1143.0046    993.06458    2030.0803    385.94872 
  162000    283.02147    1006.1798   -71.860427    1078.0402    998.86174    2005.0415    386.57154 
  163000    280.56929    1022.3696     -90.1604      1112.53    990.20731    2012.5769    381.92785 
  164000    273.07943     1015.394   -92.956288    1108.3503    963.77352    1979.1675    382.11412 
  165000    276.07129    1041.4701   -93.059895      1134.53    974.33265    2015.8027    376.31825 
  166000    278.98552      1038.15   -74.630616    1112.7806    984.61777    2022.7677    394.52995 
  167000    284.43212    1026.2546    -84.62598    1110.8806    1003.8403    2030.0949    394.60796 
  168000    289.34672    1026.1927   -84.606052    1110.7988    1021.1853    2047.3781    387.42053 
  169000     294.5453    1066.6452    -70.96308    1137.6083    1039.5326    2106.1778    393.04451 
  170000    285.73069    1085.4221   -81.538285    1166.9604    1008.4234    2093.8455    394.92264 
  171000    293.35649    1097.9578   -70.238127    1168.1959    1035.3369    2133.2947    390.17337 
  172000    289.91464    1017.5981    -84.23411    1101.8322    1023.1897    2040.7878    392.74696 
  173000    290.58461    1031.6371   -79.153229    1110.7904    1025.5542    2057.1913    389.94714 
  174000     282.8139    1053.4957   -95.202968    1148.6987    998.12918    2051.6249    381.64971 
  175000    279.66003     1040.165   -78.128595    1118.2936    986.99829    2027.1633    379.92691 
  176000    268.98579    1068.3878   -91.325601    1159.7134    949.32593    2017.7137    383.14091 
  177000    286.89565    1013.1284    -96.89422    1110.0226    1012.5348    2025.6632     374.9811 
  178000    281.67657    1046.1463   -85.132912    1131.2792    994.11525    2040.2615     383.1806 
  179000    289.45128    1035.5984   -85.869279    1121.4676    1021.5543    2057.1527    377.23129 
  180000    281.36705    1049.2999   -85.860131    1135.1601    993.02284    2042.3228    391.14765 
  181000    281.06808    1047.7017   -88.608477    1136.3102    991.96768    2039.6694    385.15612 
  182000    284.56933    1040.6293   -79.770625    1120.3999    1004.3246    2044.9539    389.07063 
  183000    273.58152     1076.235   -79.114995      1155.35    965.54554    2041.7805    393.33117 
  184000    285.13395    1024.4341   -96.699821     1121.134    1006.3173    2030.7514    380.69998 
  185000    292.14459    992.94453   -84.443805    1077.3883    1031.0598    2024.0043    379.46465 
  186000    279.48614    932.23213    -90.42385     1022.656     986.3846    1918.6167    379.80623 
  187000    276.24793    1003.7686   -90.871147    1094.6398    974.95606    1978.7247    384.65391 
  188000    281.66989    1003.0828   -88.653636    1091.7364    994.09164    1997.1744    384.14304 
  189000    281.70436    987.05448   -97.687819    1084.7423    994.21331    1981.2678    378.24932 
  190000    272.08647    1073.5132   -78.230805     1151.744     960.2691    2033.7823    374.56104 
  191000    284.21433    1035.5863   -85.710646     1121.297    1003.0717     2038.658    371.11897 
  192000    299.69221    1048.7436   -97.118093    1145.8617    1057.6974    2106.4411    372.82001 
  193000    285.38409    1083.5172   -78.805755     1162.323    1007.2001    2090.7173    375.94368 
  194000    293.80762    1039.0688   -70.623963    1109.6928    1036.9291    2075.9979    376.21034 
  195000    284.44772    1078.5329   -76.678055    1155.2109    1003.8954    2082.4283    387.94269 
  196000    280.02392    1118.1895   -64.572848    1182.7623    988.28258    2106.4721    378.53376 
  197000     289.3922    1039.1845   -83.565184    1122.7497    1021.3458    2060.5303    377.84484 
  198000    304.40353    1025.0271    -68.72238    1093.7495     1074.325    2099.3522     386.5609 
  199000    288.20227    1038.7208   -78.362104    1117.0829    1017.1462     2055.867    386.81503 
  200000    286.90418    1068.6853   -74.772804    1143.4581    1012.5649    2081.2502    386.42183 
  201000    286.20655    1099.8322   -72.740454    1172.5727    1010.1028     2109.935    386.72313 
  202000    294.88032    999.29455   -74.736631    1074.0312    1040.7149    2040.0095    395.06295 
  203000     284.6113    1058.4934   -60.517233    1119.0106    1004.4727    2062.9661    380.27683 
  204000    274.92965    1025.9438   -79.175109    1105.1189    970.30347    1996.2473    379.39358 
  205000    281.83463    989.98977   -74.980027    1064.9698    994.67308    1984.6628    384.90273 
  206000    270.27056    1025.0384   -73.031384    1098.0698    953.86023    1978.8987     379.1291 
  207000    285.49693    995.08229   -80.953811    1076.0361    1007.5983    2002.6806    374.34963 
  208000    279.46163    1037.7978   -87.938297    1125.7361    986.29808    2024.0959    375.73051 
  209000    269.33123    1091.3186   -91.091983    1182.4106    950.54508    2041.8636    382.31281 
  210000     277.7233    1049.7951   -82.557582    1132.3526    980.16303    2029.9581    379.37815 
  211000    289.59631    992.30951   -91.367542    1083.6771    1022.0662    2014.3757    379.67471 
  212000    275.23422    1042.3578   -76.955532    1119.3134    971.37837    2013.7362    383.37202 
  213000    270.30922    999.93769   -94.082886    1094.0206    953.99667    1953.9344    375.29716 
  214000    279.39154    1030.3855   -77.615976    1108.0015    986.05071    2016.4362    374.10755 
  215000    284.80787    1074.8778   -81.903328    1156.7811    1005.1665    2080.0442    369.83018 
  216000    289.58928    1061.4163   -92.963958    1154.3802    1022.0414    2083.4577     368.9757 
  217000    295.41468    1034.6784    -87.53711    1122.2155    1042.6009    2077.2793    376.82627 
  218000    293.56502    1036.8831   -80.754834    1117.6379    1036.0729     2072.956    379.65901 
  219000    286.93308     1073.643   -82.769701    1156.4127    1012.6669    2086.3099    379.18079 
  220000    289.95184    1029.6874    -85.06545    1114.7529     1023.321    2053.0084     379.1158 
  221000    289.06941    1029.0868   -68.723428    1097.8103    1020.2066    2049.2935    377.12511 
  222000    288.10077    1041.6091   -88.480259    1130.0894     1016.788    2058.3971    386.96005 
  223000    284.91167    1036.9706      -98.762    1135.7326    1005.5328    2042.5034    388.41495 
  224000    282.98194    1054.8971   -81.601745    1136.4989    998.72225    2053.6194    386.02576 
  225000    291.51497    1007.2366   -80.535321    1087.7719    1028.8377    2036.0743    388.36735 
  226000    282.07731    1046.3365   -91.350894    1137.6874    995.52954    2041.8661    379.13282 
  227000    287.44245    1031.6754    -104.6056     1136.281    1014.4646      2046.14    379.41482 
  228000    282.07222    1026.7186   -102.04971    1128.7683    995.51161    2022.2302    384.14361 
  229000     279.5512    1003.4124    -86.18792    1089.6003    986.61422    1990.0266    383.70015 
  230000    284.88531    987.14852   -101.38353     1088.532    1005.4398    1992.5883    380.32339 
  231000    279.88176    1024.9382   -91.107288    1116.0455    987.78085    2012.7191    378.46028 
  232000    281.09815    1023.4203   -68.193132    1091.6135    992.07382    2015.4942    371.14189 
  233000    269.93637      1047.33   -80.463438    1127.7934     952.6808    2000.0108    385.86155 
  234000    276.44858    1041.0938   -79.547996    1120.6418     975.6642     2016.758    391.85627 
  235000    270.43802     1025.848   -79.717655    1105.5656    954.45127    1980.2992    388.20113 
  236000    271.32224    1041.9569   -75.729181     1117.686     957.5719    1999.5288     391.2001 
  237000    279.71218    1035.9138   -80.564903    1116.4787    987.18235    2023.0961    390.11814 
  238000    287.36006    1011.8687     -87.7465    1099.6152    1014.1739    2026.0426    394.95414 
  239000    290.90208    1046.9926   -82.097483      1129.09    1026.6746    2073.6672    387.95733 
  240000    293.81049    1027.9091   -104.10116    1132.0102    1036.9392    2064.8483    372.46493 
  241000    284.69182    1059.1832   -88.739529    1147.9227    1004.7569    2063.9401    380.69731 
  242000    282.86857    1042.9709   -75.784397    1118.7553    998.32213     2041.293    375.17995 
  243000    276.32182    1023.3189   -89.607501    1112.9264    975.21681    1998.5357    372.46555 
  244000    279.15839    1053.1921   -79.415254    1132.6073    985.22787    2038.4199    382.54266 
  245000    280.73044    1080.6484   -69.961212    1150.6096    990.77607    2071.4244    385.11501 
  246000    289.83705    982.86327   -81.495152    1064.3584    1022.9159    2005.7791    379.85583 
  247000    276.86107    1067.8932   -86.972634    1154.8659    977.11998    2045.0132    370.63054 
  248000    282.66552    1044.0836   -87.618342    1131.7019    997.60553    2041.6891    374.33209 
  249000    291.95733    1047.4726   -69.294858    1116.7674    1030.3989    2077.8715    373.82315 
  250000    280.07848     1017.182   -68.709017     1085.891    988.47512    2005.6572    387.25165 
  251000    275.26896    1021.5255   -84.081716    1105.6072    971.50098    1993.0265    371.04346 
  252000    282.65262    1035.5326   -90.588169    1126.1208    997.55997    2033.0926    378.46249 
  253000    273.77798    1065.1037   -73.166887    1138.2706    966.23889    2031.3426    378.13002 
  254000    279.01479    1018.4768   -70.854852    1089.3316    984.72106    2003.1978    382.37517 
  255000    281.14503    1045.7224   -85.096321    1130.8187    992.23928    2037.9617    377.26244 
  256000    278.71792    1064.5609   -79.853384    1144.4143    983.67331    2048.2342    373.44955 
  257000    275.37228     1046.657   -88.518842    1135.1758    971.86562    2018.5226    371.58679 
  258000    282.35444    1029.6593   -79.442814    1109.1021    996.50764     2026.167    376.50233 
  259000    277.61383    1045.0576   -93.903368     1138.961     979.7767    2024.8343    388.87463 
  260000    288.05795    994.78763   -94.637165    1089.4248    1016.6369    2011.4245     384.1313 
  261000    278.31303    1021.7337   -90.821025    1112.5548    982.24436    2003.9781    386.16306 
  262000    295.73312    1057.9951   -77.373878     1135.369    1043.7247    2101.7198    386.73567 
  263000    285.75662     1038.695   -83.480774    1122.1757    1008.5149    2047.2098     389.8575 
  264000    291.79745    1033.0731   -84.832112    1117.9052    1029.8347    2062.9078    386.32357 
  265000    282.58434    1035.6266   -89.017649    1124.6443    997.31902    2032.9457    390.59985 
  266000    282.50712    1059.5229   -86.139069     1145.662    997.04647    2056.5694    397.16068 
  267000    277.70645    1031.8144    -91.72154    1123.5359    980.10357    2011.9179    405.48766 
  268000    280.04554     1031.076   -80.324053    1111.4001    988.35886    2019.4349    397.84208 
  269000    280.35383    1064.2491   -76.397435    1140.6465    989.44691     2053.696    395.24062 
  270000    286.87119    1071.8174   -71.818655     1143.636    1012.4485    2084.2659    385.98933 
  271000    288.71291     1022.401   -80.088942      1102.49    1018.9484    2041.3494    388.54085 
  272000     276.7732    1009.7844   -76.619578     1086.404    976.80987    1986.5943    387.47514 
  273000    271.37519    1024.7515   -71.702911    1096.4544    957.75878    1982.5103    393.25194 
  274000     277.0029    1038.8755   -90.583738    1129.4592    977.62055     2016.496    388.05819 
  275000    274.81251    1004.3165   -81.182594    1085.4991    969.89003    1974.2065    386.10273 
  276000    268.11934    1058.7313   -96.189185    1154.9204    946.26798    2004.9992    394.41461 
  277000    284.70626    1065.4678     -82.3907    1147.8585    1004.8079    2070.2757    384.78636 
  278000     289.8224    1037.4328   -77.121729    1114.5545    1022.8641    2060.2969    384.32214 
  279000    280.59293    1069.7285   -75.171783    1144.9003    990.29078    2060.0193    391.64467 
  280000    274.85505    1068.6712   -68.364746     1137.036    970.04018    2038.7114    381.07581 
  281000    268.94089    1088.0434   -72.344291    1160.3877    949.16747    2037.2109     385.0422 
  282000    285.78067     1066.329   -77.389246    1143.7183    1008.5997    2074.9288    391.93999 
  283000    292.24024    1091.4842   -83.194523    1174.6787    1031.3974    2122.8816    389.94415 
  284000    283.89866    1077.3084   -68.502498    1145.8109    1001.9576    2079.2661    384.47818 
  285000    280.62549    1041.1294   -85.497075    1126.6264    990.40569     2031.535    380.93829 
  286000    280.86658    999.50716   -82.855043    1082.3622    991.25653    1990.7637    386.02065 
  287000    271.33724    1030.5747   -93.790973    1124.3657    957.62486    1988.1996    391.56223 
  288000    285.91473    1039.0346   -85.542028    1124.5767    1009.0729    2048.1075    381.46866 
  289000    287.75342    1052.8149    -93.93733    1146.7522    1015.5621     2068.377    380.66481 
  290000    274.40074    1005.2453   -101.98992    1107.2353     968.4368    1973.6821    386.68749 
  291000    278.11624    1009.5377    -86.29779    1095.8355    981.54982    1991.0875    390.93785 
  292000     278.7022    1031.2644   -79.135364    1110.3998    983.61786    2014.8823    374.74567 
  293000    278.90104    1032.9283   -91.521621    1124.4499     984.3196    2017.2479    371.95422 
  294000    273.90098    1028.6989   -86.263894    1114.9628    966.67301    1995.3719    365.81684 
  295000    286.69591    1022.8311   -90.073742    1112.9048    1011.8299    2034.6609    375.72644 
  296000    284.20869    1041.8878   -89.967835    1131.8556    1003.0518    2044.9396     376.0176 
  297000    289.99536    1023.6742   -79.772801     1103.447    1023.4746    2047.1488    387.51973 
  298000    277.85133    1050.8892   -71.173053    1122.0622     980.6149    2031.5041    382.32874 
  299000    281.77486    1024.3512   -94.821613    1119.1728    994.46213    2018.8134    381.80126 
  300000    276.12755    1060.2496   -64.180827    1124.4305     974.5312    2034.7809    371.26246 
  301000    278.73594    1077.5865   -87.880395    1165.4669    983.73693    2061.3235    387.97038 
  302000    289.26989    1078.2006   -71.031187    1149.2318    1020.9142    2099.1148    392.84168 
  303000    290.89651    1096.2622   -65.255075    1161.5173     1026.655    2122.9172    384.17863 
  304000    285.59098    1073.5718   -73.947425    1147.5193    1007.9303    2081.5021    382.35238 
  305000     287.1552    1025.9035   -93.149379    1119.0529    1013.4509    2039.3544    382.49235 
  306000    280.58379    1034.5845    -88.71601    1123.3005     990.2585     2024.843    374.60186 
  307000    275.86998    1075.8704   -96.805576     1172.676    973.62216    2049.4926    384.86467 
  308000    272.85893    1013.2935   -81.778833    1095.0723    962.99531    1976.2888    379.80441 
  309000    284.05956    1039.2333   -83.145773    1122.3791    1002.5255    2041.7588     388.6451 
  310000    290.56506    1075.1362   -81.901957    1157.0382    1025.4852    2100.6214    380.93763 
  311000    279.88259    1048.1159   -86.547315    1134.6633    987.78377    2035.8997    384.87549 
  312000    286.86809    1040.3547   -91.407519    1131.7622    1012.4375    2052.7922    395.57897 
  313000    274.94944    1051.9939   -69.933771    1121.9277    970.37333    2022.3672    393.92628 
  314000    289.35443    1074.3579   -82.866038     1157.224    1021.2126    2095.5705    380.31129 
  315000    283.83916     1035.335   -76.633848    1111.9689    1001.7476    2037.0827    376.01855 
  316000     285.9362    1067.9822   -74.660706    1142.6429    1009.1486    2077.1308    380.23817 
  317000    276.89582    1051.7787   -84.946707    1136.7254    977.24263    2029.0213    378.63769 
  318000    286.21763    1053.0296   -94.723095    1147.7527    1010.1419    2063.1715     380.0898 
  319000     283.0691    1016.4838   -104.49367    1120.9774    999.02988    2015.5136    377.74565 
  320000    281.44089    1069.1456   -89.430096    1158.5757    993.28343    2062.4291    373.97833 
  321000    276.41623    1077.9708   -78.939874    1156.9106    975.55004    2053.5208    381.60699 
  322000    282.36644    1013.7018   -99.938777    1113.6406    996.54997    2010.2518    379.31981 
  323000    277.69864    1001.4256   -89.359962    1090.7856      980.076    1981.5016    377.20306 
  324000    283.21609     1029.724   -85.828973     1115.553    999.54862    2029.2726    371.55639 
  325000    292.75656    1039.7457   -87.115618    1126.8613    1033.2196    2072.9653    372.58129 
  326000    284.64919    1046.0469   -88.776617    1134.8235    1004.6064    2050.6533    376.35373 
  327000    280.07543    1088.0804   -76.112824    1164.1932    988.46434    2076.5447    372.93912 
  328000    292.37532    1048.1292   -88.193618    1136.3228    1031.8741    2080.0033    378.78172 
  329000    286.57317    1040.0426   -81.597038    1121.6396    1011.3967    2051.4393    365.37771 
  330000    287.38454    1014.4816   -90.766413     1105.248    1014.2602    2028.7418    370.63302 
  331000    285.86636    1047.0115   -87.953406    1134.9649    1008.9022    2055.9137     365.0459 
  332000    287.25751    1066.8258   -74.019925    1140.8457    1013.8119    2080.6377    367.01924 
  333000    297.73093    1036.5932   -94.205683    1130.7989    1050.7755    2087.3688    375.59131 
  334000    277.79135    1119.4163   -76.772516    1196.1888    980.40322    2099.8195    382.75335 
  335000    275.44227    1039.6193   -72.016932    1111.6363    972.11264     2011.732    388.55715 
  336000    277.48197    1000.6715   -92.283938    1092.9554     979.3113    1979.9828    384.94885 
  337000    281.90275     1036.108   -94.142466    1130.2505    994.91349    2031.0215    375.86456 
  338000    289.45002    967.01708   -80.256791    1047.2739    1021.5499     1988.567    377.13169 
  339000    279.77875    1011.2614   -91.987167    1103.2486     987.4173    1998.6787       385.65 
  340000    271.83809    1034.6627   -90.744208    1125.4069    959.39248    1994.0552    375.20306 
  341000    281.80344    1008.0262   -79.243786      1087.27    994.56298    2002.5891    385.01086 
  342000    279.62506    1038.7569   -81.371056    1120.1279    986.87487    2025.6317    384.88868 
  343000    286.04492     1014.685   -90.106244    1104.7912    1009.5324    2024.2174    385.82464 
  344000     286.0484    1009.9785   -70.979919    1080.9584    1009.5447    2019.5232    404.30316 
  345000    276.13929    1044.0733   -80.266898    1124.3402    974.57262    2018.6459    399.07888 
  346000    285.18583    1025.8857   -85.220061    1111.1057    1006.5004     2032.386    398.81377 
  347000    287.81739    1040.2114   -70.984972    1111.1964    1015.7879    2055.9993    385.30399 
  348000    282.77452    1037.5166    -87.15729    1124.6739    997.99021    2035.5068    384.60784 
  349000    271.95205    1045.4369    -71.88193    1117.3188    959.79467    2005.2315    388.03139 
  350000    278.98244    1036.1791   -91.281905     1127.461    984.60689    2020.7859    370.39279 
  351000    285.97999    1025.6729   -66.820834    1092.4937    1009.3032    2034.9761    378.03474 
  352000    277.48077    1041.8398    -81.73761    1123.5774    979.30708    2021.1469    365.13182 
  353000     290.1814    1018.2986   -87.059181    1105.3578    1024.1312    2042.4298     369.4142 
  354000    275.57296    992.26819    -75.78374    1068.0519    972.57388    1964.8421    387.66475 
  355000    279.88564    972.90633   -95.304532    1068.2109    987.79452    1960.7009    390.89701 
  356000    280.80408    1013.5553   -63.971555    1077.5268    991.03597    2004.5912    393.05483 
  357000    280.15613    988.92739   -82.060054    1070.9874    988.74917    1977.6766    399.75159 
  358000    282.46383    1037.1764   -90.458235    1127.6347    996.89368    2034.0701    379.35907 
  359000    275.40334    1057.8891   -88.783024    1146.6721    971.97526    2029.8644    388.19179 
  360000    287.07432       1012.1   -83.644753    1095.7448    1013.1654    2025.2654      383.805 
  361000    281.04842    1027.2828   -76.575338    1103.8581    991.89831    2019.1811    381.73125 
  362000    284.22845    1024.9101   -87.393016    1112.3031    1003.1215    2028.0316     385.8854 
  363000    277.84238    1016.1916   -99.343178    1115.5348    980.58331    1996.7749    382.85003 
  364000    280.27576    1006.1826   -80.222134    1086.4047    989.17137     1995.354    389.03616 
  365000    285.29092    1046.8263   -74.270353    1121.0966    1006.8713    2053.6976    400.47416 
  366000    297.58961     1029.225   -73.132914     1102.358    1050.2768    2079.5018    387.65583 
  367000    285.94066    1041.0224   -64.341659    1105.3641    1009.1644    2050.1868    388.87426 
  368000    280.88923    1047.6023   -88.091646     1135.694    991.33648    2038.9388    390.73109 
  369000    292.00199    1033.3423   -89.857701       1123.2    1030.5565    2063.8989    392.16536 
  370000    296.06964    1032.3699   -82.855709    1115.2257    1044.9124    2077.2823    396.90981 
  371000    282.03011    1091.3896    -93.15676    1184.5464    995.36298    2086.7526     394.4424 
  372000    288.19544    1060.7881    -81.79456    1142.5827    1017.1221    2077.9102    391.11809 
  373000    284.89954    1033.8286   -85.637531    1119.4662      1005.49    2039.3186    384.94429 
  374000    285.54658    1035.7196   -81.743826    1117.4634    1007.7736    2043.4932    387.88168 
  375000    288.76767    1050.1627   -71.452159    1121.6148    1019.1417    2069.3044    360.72584 
  376000    278.80218     1085.571   -77.841592    1163.4126    983.97072    2069.5418    382.69503 
  377000    273.15334    1056.4615   -64.684602    1121.1461    964.03436    2020.4958    384.19995 
  378000    271.24336    1022.0152   -76.298935    1098.3141    957.29351    1979.3087    392.72265 
  379000    285.58332    1005.3412   -94.972383    1100.3136    1007.9032    2013.2444    383.06714 
  380000    285.35945    999.84263   -104.40111    1104.2437    1007.1132    2006.9558    363.55676 
  381000    283.53162    1044.6952   -90.935813     1135.631    1000.6622    2045.3574    376.16415 
  382000    287.13679    1026.1344   -81.381495    1107.5159    1013.3859    2039.5203    373.68602 
  383000    273.61951    1016.0997   -93.699966    1109.7996    965.67962    1981.7793    382.47426 
  384000    277.13953    998.44782   -87.640254    1086.0881    978.10275    1976.5506    382.08713 
  385000    265.84713    1042.5454   -95.478775    1138.0242    938.24871    1980.7941    379.39531 
  386000    275.03922     1012.309   -82.277381    1094.5864    970.69017    1982.9992    380.99178 
  387000    275.83715     991.7665   -76.493543      1068.26    973.50628    1965.2728    388.64083 
  388000    276.72889     1039.436   -81.616241    1121.0522    976.65348    2016.0894     387.9797 
  389000    286.06382     1078.395    -70.08248    1148.4775     1009.599    2087.9941    389.68483 
  390000    274.20319    1082.4327   -92.405734    1174.8385    967.73958    2050.1723    386.35184 
  391000    278.89088    1023.4678   -97.199205     1120.667    984.28377    2007.7516    390.74619 
  392000    279.91818    1017.4665   -94.112709    1111.5792    987.90938    2005.3759    384.03348 
  393000    280.77074    1041.4939   -91.689955    1133.1839    990.91832    2032.4122    372.33816 
  394000     285.7785    1035.6213   -86.460794    1122.0821    1008.5921    2044.2134     400.8174 
  395000    284.11897    1058.6368   -91.246161     1149.883    1002.7351    2061.3719    393.00634 
  396000    285.75937     1049.849   -86.249931    1136.0989    1008.5246    2058.3735    386.44698 
  397000    280.92484    1057.6993   -82.949753    1140.6491    991.46216    2049.1615    406.75703 
  398000     288.7112    1039.5554   -89.725581     1129.281    1018.9424    2058.4978    397.35873 
  399000    275.56979    1040.9521   -89.441317    1130.3934     972.5627    2013.5148    400.50731 
  400000    282.97949    1018.5584   -90.580611     1109.139    998.71358     2017.272    393.76349 
  401000    282.72746    1039.9996   -94.773673    1134.7732     997.8241    2037.8237    402.79211 
  402000    274.28075    982.94938   -91.080623      1074.03     968.0133    1950.9627    386.33821 
  403000    277.52959    974.22013   -87.886708    1062.1068    979.47938    1953.6995    373.11096 
  404000    281.64016    1020.8772   -92.570112    1113.4473    993.98674    2014.8639    378.77816 
  405000    285.04837    1010.7655   -85.043852    1095.8094    1006.0153    2016.7808    388.94826 
  406000    278.98083    1029.6214   -84.849606     1114.471    984.60121    2014.2226     388.3447 
  407000    278.04539    998.68825   -101.76596    1100.4542     981.2998     1979.988    385.44715 
  408000    279.38851    998.53094   -87.400389    1085.9313    986.04002     1984.571    365.85077 
  409000    277.72617    1032.0502   -72.999212    1105.0494    980.17318    2012.2234    379.17915 
  410000    278.16917    1022.4891   -80.547721    1103.0369    981.73663    2004.2258     376.8891 
  411000    273.58959    1023.4116   -92.259515    1115.6711    965.57403    1988.9856    395.27592 
  412000    285.74812    1018.8767   -95.903941    1114.7806    1008.4849    2027.3616    401.09748 
  413000    279.69486    1079.3724   -79.519236    1158.8917    987.12123    2066.4937    399.62296 
  414000    274.40812    1057.0133   -90.170059    1147.1834    968.46286    2025.4762    404.34921 
  415000    276.94916    1048.7054   -84.462164    1133.1676     977.4309    2026.1363    400.12667 
  416000    285.19828    974.32551   -83.981961    1058.3075    1006.5443    1980.8699    393.19941 
  417000    272.11483    1050.7466   -88.964026    1139.7107     960.3692    2011.1158    385.25192 
  418000    277.01453    1020.5532   -77.420561    1097.9737    977.66158    1998.2147    386.06281 
  419000    280.06225    1014.9739   -84.125937    1099.0998    988.41783    2003.3917    390.28363 
  420000    286.25542    1042.4962   -98.233103    1140.7293    1010.2753    2052.7715    386.24911 
  421000    286.57064    993.39673    -98.76934    1092.1661    1011.3878    2004.7845    383.64258 
  422000    284.35311    1018.8786   -94.290179    1113.1688    1003.5615    2022.4401    382.28243 
  423000    274.21658    1003.9958   -85.289979    1089.2858    967.78684    1971.7827    384.84371 
  424000    271.00011    1013.1219    -92.55235    1105.6742    956.43502    1969.5569    377.49146 
  425000    284.99411    1015.2923   -86.024359    1101.3167    1005.8237    2021.1161    388.06888 
  426000    283.11089    1031.3791   -77.128924    1108.5081    999.17735    2030.5565    384.12253 
  427000    271.59226    1031.3935   -93.546368    1124.9398    958.52489    1989.9184    375.74892 
  428000    284.80521    1019.5025   -98.036174    1117.5387    1005.1571    2024.6596    381.33003 
  429000    285.35321    1024.5101   -100.14022    1124.6504    1007.0911    2031.6013    361.53751 
  430000    276.53293    1053.1587   -94.141687    1147.3004    975.96187    2029.1205    384.39182 
  431000     291.2426    1021.7753   -95.709301    1117.4846    1027.8764    2049.6517    382.02451 
  432000    283.57027     1038.272   -64.067499    1102.3395    1000.7986    2039.0706    392.65409 
  433000    288.06998    1029.3387   -79.292168    1108.6309    1016.6794    2046.0181    388.19102 
  434000    282.83729    1052.5742   -77.924804     1130.499    998.21175    2050.7859    386.74137 
  435000    276.81891    1050.5683   -79.196871    1129.7652    976.97118    2027.5395    391.50174 
  436000    289.54555    1022.7177   -83.363987    1106.0817     1021.887    2044.6047    381.31072 
  437000    272.83957    1062.9634   -85.717192    1148.6806    962.92701    2025.8904    387.98053 
  438000    276.42248    1027.4214   -72.185051    1099.6065    975.57207    2002.9935     397.6952 
  439000    277.64583    981.86428   -93.163448    1075.0277    979.88964    1961.7539    396.17526 
  440000     268.2626    986.98073   -91.652344    1078.6331     946.7736    1933.7543    404.67264 
  441000    275.48009    957.51521   -95.881815     1053.397    972.24611    1929.7613    394.21886 
  442000     273.6165     1007.849   -88.492684    1096.3416    965.66899    1973.5179    393.32502 
  443000    274.22338    1022.9461    -66.67998    1089.6261    967.81086    1990.7569    398.70963 
  444000    282.21618    1087.4526   -73.041413     1160.494    996.01967    2083.4723    400.77405 
  445000    287.51217     1039.678   -82.669509    1122.3475    1014.7107    2054.3887    395.56207 
  446000    282.72439    1026.8172   -83.097284    1109.9145    997.81328    2024.6305    391.38857 
  447000    289.02505    1029.0528    -86.89921     1115.952    1020.0501    2049.1029    394.27342 
  448000    279.14981    1056.4424   -87.443206    1143.8856     985.1976      2041.64    398.80118 
  449000    282.32699    1023.3527   -82.916765    1106.2695    996.41075    2019.7635    394.97927 
  450000    281.61129    1013.1399   -78.556724    1091.6966    993.88483    2007.0247    392.06308 
  451000     287.4958    1005.2173   -89.167465    1094.3848    1014.6529    2019.8702     394.3948 
  452000    277.79416    1009.8604   -78.558524    1088.4189    980.41311    1990.2735    391.65043 
  453000    280.98513    1020.4977   -83.711184    1104.2089    991.67493    2012.1726    396.74735 
  454000    282.21425    1011.8375   -102.33066    1114.1682    996.01287    2007.8504    391.05435 
  455000    272.49559    1022.4633   -70.430746     1092.894      961.713    1984.1763    390.50609 
  456000    272.19375    1035.2815   -83.473038    1118.7546    960.64772    1995.9293    390.64443 
  457000    283.49293    994.93654   -91.454184    1086.3907    1000.5257    1995.4622    394.15646 
  458000    281.06953     1019.307   -99.491728    1118.7987    991.97282    2011.2798    386.63564 
  459000    277.07402    978.06994   -96.913798    1074.9837    977.87156    1955.9415    390.05122 
  460000    284.41144    983.31887   -84.851219    1068.1701    1003.7674    1987.0862    391.34308 
  461000    276.57654    997.00258   -97.384708    1094.3873    976.11579    1973.1184    388.66677 
  462000    280.99943    1003.6492   -84.791991    1088.4412    991.72543    1995.3746    392.04845 
  463000    290.18949    1026.8205   -82.654657    1109.4751    1024.1597    2050.9801    401.04674 
  464000     280.7035    986.52922   -95.400165    1081.9294    990.68099    1977.2102    403.29064 
  465000    261.66814      1050.56   -85.142656    1135.7026     923.4999    1974.0599    395.39431 
  466000    272.28217    1030.1362   -81.330777    1111.4669    960.95976    1991.0959    383.63721 
  467000    276.95693    1049.4567   -92.801514    1142.2583    977.45831     2026.915    401.26772 
  468000    282.69216    1057.4058   -95.229497    1152.6353    997.69952    2055.1053     399.4288 
  469000    284.36553    1017.4262   -87.477192    1104.9033    1003.6053    2021.0315    386.31574 
  470000     277.0199    1031.3729   -88.849716    1120.2226    977.68056    2009.0535    385.21881 
  471000    276.30557    1078.7168   -83.212283    1161.9291    975.15946    2053.8762    382.51434 
  472000    285.90466    1079.9738   -85.083807    1165.0576    1009.0373    2089.0111    379.26392 
  473000    293.00126    1038.9761   -93.194854     1132.171    1034.0832    2073.0593    389.51101 
  474000    291.19127    1065.0908   -98.718777    1163.8096    1027.6953    2092.7861    392.76007 
  475000    291.77009    1032.4874   -94.717199    1127.2046    1029.7381    2062.2254    395.99075 
  476000    279.83945    1038.6959   -81.498164     1120.194    987.63153    2026.3274    393.55048 
  477000    279.70724    1038.7911   -75.385477    1114.1766    987.16492     2025.956    385.45936 
  478000    284.57626    1060.0272   -56.608854    1116.6361     1004.349    2064.3763    381.30575 
  479000    290.42154    984.25653   -85.673055    1069.9296    1024.9787    2009.2352    389.80128 
  480000    273.52618    946.35795   -88.299915    1034.6579    965.35023    1911.7082    393.69332 
  481000    276.61819    1013.8431   -84.832432    1098.6756    976.26279    1990.1059    395.95577 
  482000    280.59953     1010.054   -80.743617    1090.7976    990.31406    2000.3681    403.18472 
  483000    273.89429    986.59337   -92.933021    1079.5264    966.64939    1953.2428    397.27069 
  484000     270.1113    1024.1424   -73.308994    1097.4514    953.29817    1977.4406    394.03171 
  485000    276.24381    1033.2824   -85.972693    1119.2551     974.9415    2008.2239    399.91537 
  486000    280.86826    1041.5106   -85.742789    1127.2534    991.26248    2032.7731    388.65044 
  487000    280.05233    1035.0857   -81.501999    1116.5877    988.38283    2023.4685    389.12314 
  488000    285.69367    1030.9356   -90.761821    1121.6975    1008.2927    2039.2283    395.45483 
  489000    269.23801    1068.2887   -90.656234    1158.9449    950.21607    2018.5048    389.09465 
  490000    290.69083    1014.6347   -94.053267     1108.688    1025.9291    2040.5638    384.52818 
  491000    269.97255    1046.3103   -79.527957    1125.8382    952.80847    1999.1187    396.60715 
  492000    279.17923    1034.3021   -86.501864     1120.804    985.30142    2019.6035    392.75771 
  493000    268.45381    1026.6773    -79.66971     1106.347    947.44842    1974.1257    389.62954 
  494000    263.17061    1094.2659   -75.081105     1169.347    928.80254    2023.0685     380.9415 
  495000    284.58264    979.84396   -87.384551    1067.2285    1004.3715    1984.2155    386.24384 
  496000    286.25877    1019.3256   -77.967663    1097.2933    1010.2871    2029.6127     383.5542 
  497000    286.78661    1078.1123   -76.222153    1154.3345      1012.15    2090.2623    390.66983 
  498000     290.5025    1049.6077   -84.469629    1134.0774    1025.2644    2074.8721     395.1309 
  499000    281.15655    1026.8555   -92.060159    1118.9156    992.27994    2019.1354    390.27003 
  500000    282.17993    1080.1514   -82.987779    1163.1392    995.89172    2076.0431    387.64822 
  501000    288.97354    1063.1758   -96.140121    1159.3159    1019.8683    2083.0441     389.9946 
  502000    281.72603    1035.5677   -90.643044    1126.2107    994.28979    2029.8575     393.7927 
  503000    272.61862    1061.9963   -77.806236    1139.8025    962.14718    2024.1435    393.51666 
  504000    293.20293    1048.4392   -75.572553    1124.0118     1034.795    2083.2342    399.55481 
  505000    283.84699    1057.3785   -83.552869    1140.9314    1001.7753    2059.1537    397.20299 
  506000    278.90479    1070.7881   -71.916243    1142.7044    984.33285     2055.121    402.49142 
  507000    279.17722    1043.4429   -82.691309    1126.1343    985.29432    2028.7373    396.92341 
  508000    276.11436    1012.2956   -88.828211    1101.1238    974.48463    1986.7802    398.79348 
  509000    281.76116    1084.9533   -84.198959    1169.1523    994.41377    2079.3671    396.67758 
  510000    280.54474    1031.5601   -81.399551    1112.9597    990.12069    2021.6808    387.98655 
  511000    282.94024    1049.6002   -89.170364    1138.7706    998.57506    2048.1753    396.35565 
  512000    279.67442    1006.7586   -93.145745    1099.9043    987.04908    1993.8076    398.97146 
  513000    278.62739    988.93768   -62.047532    1050.9852    983.35384    1972.2915    402.91961 
  514000    275.92386    1048.2501   -64.785599    1113.0357    973.81233    2022.0625    403.75052 
  515000    278.43285    1021.6991   -86.088413    1107.7875    982.66724    2004.3663    398.96807 
  516000    274.82756    1017.4462   -102.37785     1119.824    969.94315    1987.3893    397.29557 
  517000    287.02108    1028.3142   -92.135258    1120.4494    1012.9775    2041.2917    392.83948 
  518000    282.67531    1023.2709   -81.749424    1105.0203    997.64005    2020.9109    398.12691 
  519000    283.16922    1069.6428   -90.088819    1159.7316    999.38322     2069.026    396.91941 
  520000    285.86142    1040.0035   -86.058089    1126.0616    1008.8847    2048.8882    392.14323 
  521000    284.43956    981.28748   -95.729602    1077.0171    1003.8666    1985.1541    397.71822 
  522000    289.70137    1015.2369   -79.195082     1094.432     1022.437    2037.6739     399.9538 
  523000       269.38    1075.5648   -58.754015    1134.3188    950.71721     2026.282    402.45639 
  524000    279.62136    1015.3622   -73.945511    1089.3077    986.86181     2002.224    403.20224 
  525000    286.13903     1049.119   -80.894672    1130.0137    1009.8645    2058.9835    409.44529 
  526000    289.23786    1018.1557   -88.317901    1106.4736    1020.8011    2038.9568    402.07812 
  527000    287.64751    1044.6093   -96.679691     1141.289    1015.1884    2059.7976    392.58867 
  528000    280.86142    1043.3796   -71.721026    1115.1006    991.23833    2034.6179    389.15194 
  529000    278.95371    1029.0559   -76.564449    1105.6204     984.5055    2013.5614    394.47836 
  530000    283.18145     1057.803   -76.530273    1134.3333    999.42637    2057.2294    397.08857 
  531000    295.41684    1068.7492   -86.404615    1155.1538    1042.6085    2111.3577     390.7535 
  532000    274.03199    1081.5483   -87.394951    1168.9433    967.13536    2048.6837    398.21282 
  533000    275.96321    1033.0031   -72.507217    1105.5103    973.95121    2006.9543    391.27604 
  534000    288.47873    1041.9062   -88.049139    1129.9553     1018.122    2060.0282     391.8876 
  535000    290.26857    1043.8896   -92.377279    1136.2669    1024.4388    2068.3284    384.04772 
  536000    290.46484    1013.7471   -84.136385    1097.8835    1025.1315    2038.8786    390.37597 
  537000    284.96343    1044.0926   -83.551986    1127.6446    1005.7155    2049.8081    395.71812 
  538000    282.88399      1008.92   -85.564662    1094.4847    998.37655    2007.2966    402.94939 
  539000    270.29499    1054.1629    -71.18217    1125.3451    953.94646    2008.1094     398.6195 
  540000    285.19838    1036.5049   -81.158798    1117.6637    1006.5447    2043.0496    392.70268 
  541000    278.95043    1098.9808   -85.012286    1183.9931    984.49392    2083.4748     392.6701 
  542000    290.99077    1093.7803    -78.41058    1172.1909    1026.9877    2120.7679    390.80966 
  543000     292.0096    1058.9847    -79.09871    1138.0834    1030.5834    2089.5681    393.22154 
  544000    285.93101    1022.2666    -72.73838     1095.005    1009.1304     2031.397    398.20745 
  545000      282.917    1062.1382   -64.472796     1126.611    998.49307    2060.6313     394.1644 
  546000    288.37379    1011.0199   -75.308321    1086.3282    1017.7516    2028.7715    394.62925 
  547000    282.33544    990.47088   -91.081537    1081.5524    996.44057    1986.9115    397.67031 
  548000    285.08924    1013.4053   -92.441343    1105.8467    1006.1595    2019.5648    392.11289 
  549000    281.51492    1018.4077   -80.280971    1098.6887    993.54472    2011.9525    392.75841 
  550000    296.17929    1000.2456   -86.728953    1086.9746    1045.2994     2045.545    393.76045 
  551000    282.63164    1009.9343   -92.206502    1102.1408    997.48593    2007.4202    386.12617 
  552000    279.07624    1020.4303   -77.767475    1098.1978    984.93794    2005.3682    390.05806 
  553000    284.61969    993.62619    -85.64615    1079.2723    1004.5023    1998.1285    388.32831 
  554000    283.60629    1013.3003    -90.22027    1103.5206    1000.9257     2014.226    388.81251 
  555000    280.11319    1005.1852   -85.566652    1090.7518    988.59764    1993.7828    385.29944 
  556000    273.22675    1048.2252   -90.387467    1138.6127    964.29345    2012.5187     393.1165 
  557000    283.64419    1046.1227   -82.332658    1128.4553    1001.0595    2047.1822    392.92139 
  558000    278.40442    1042.2249   -97.648561    1139.8734    982.56691    2024.7918    390.96589 
  559000    271.11306    1028.3089   -92.330413    1120.6393    956.83366    1985.1426     393.0001 
  560000    265.55823    1029.8545   -86.970566    1116.8251     937.2291    1967.0836    390.69276 
  561000    283.50336     1018.436   -86.048222    1104.4842    1000.5625    2018.9984    390.86251 
  562000    275.90521    1005.2864   -75.810331    1081.0967    973.74648    1979.0328     395.7877 
  563000    270.39063    1044.9211   -92.776636    1137.6978    954.28399    1999.2051    399.23394 
  564000    288.49814    969.58689   -88.764278    1058.3512    1018.1905    1987.7774    392.11748 
  565000    287.10659    1008.5639   -82.609994    1091.1738    1013.2793    2021.8431    395.14679 
  566000    281.48529    1008.6103   -83.155754     1091.766    993.44015    2002.0504    396.29932 
  567000    285.40369    977.78087   -88.717305    1066.4982    1007.2693    1985.0502    396.61609 
  568000    280.44351    1016.7326   -76.351658    1093.0842     989.7634     2006.496    401.22182 
  569000    277.86751    1007.8553   -86.216688     1094.072      980.672    1988.5273    398.65647 
  570000    269.85073    1028.1833   -87.026491    1115.2098    952.37853    1980.5618    392.55352 
  571000    282.32242    1007.1975   -99.687879    1106.8854     996.3946    2003.5921    393.64464 
  572000    277.68234    1004.2716   -82.604855    1086.8764    980.01849    1984.2901    393.16574 
  573000     267.2256    1042.1145   -86.337155    1128.4516    943.11373    1985.2282    389.88891 
  574000    288.46561    1010.9001   -77.746221    1088.6463    1018.0756    2028.9758    392.20825 
  575000    282.34814    1047.7677   -82.627814    1130.3956    996.48539    2044.2531    391.54118 
  576000    288.49353    962.57465    -102.2136    1064.7882    1018.1742    1980.7488    392.05584 
  577000    279.24582    1025.3483   -81.855233    1107.2036    985.53645    2010.8848    393.24934 
  578000    278.81392    1088.4914   -81.898336    1170.3897    984.01214    2072.5035    391.93478 
  579000    283.62618    1049.4955   -87.362007    1136.8575    1000.9959    2050.4914    376.76693 
  580000    291.47995    1024.6069   -95.154243    1119.7612    1028.7141     2053.321    384.82366 
  581000    294.70803    1059.4729   -72.678494    1132.1514    1040.1069    2099.5798    379.42085 
  582000    283.46738    1084.5535   -82.913522     1167.467    1000.4355     2084.989     388.2192 
  583000     287.5899    991.31628   -102.48588    1093.8022     1014.985    2006.3013    379.66148 
  584000    278.64328    1017.2612   -87.621682    1104.8829    983.40989    2000.6711     379.5352 
  585000    283.87438    998.96142   -86.882245    1085.8437    1001.8719    2000.8333    382.49398 
  586000    286.75055    1023.5531    -88.06492     1111.618    1012.0227    2035.5758    383.08486 
  587000    290.59848    1038.1632   -91.204079    1129.3672    1025.6031    2063.7663    380.34167 
  588000    287.56601    1017.8798   -92.572358    1110.4522    1014.9007    2032.7805    386.23372 
  589000    285.78099    1064.6604   -89.461537    1154.1219    1008.6009    2073.2613    390.72429 
  590000    281.74274    1043.3072   -83.357523    1126.6647    994.34877    2037.6559    388.90699 
  591000    283.78407    1064.4577   -79.722526    1144.1802    1001.5532    2066.0109    384.93625 
  592000    288.43944    1024.1997   -80.786057    1104.9857    1017.9833     2042.183    381.80811 
  593000    284.10836    1017.7302   -80.117349    1097.8475    1002.6977    2020.4279    384.18748 
  594000    273.56321    992.27731   -90.182976    1082.4603    965.48093    1957.7582    381.03883 
  595000    271.52781    1046.3281    -81.24178    1127.5699    958.29744    2004.6256    394.38737 
  596000    283.18012    1081.3133   -84.656793    1165.9701    999.42166     2080.735    384.36525 
  597000    285.89432    1066.6907   -80.534696    1147.2254    1009.0009    2075.6916    389.87697 
  598000    286.36952    1070.6006   -76.133871    1146.7345     1010.678    2081.2786    386.23483 
  599000    287.09264    1077.2896   -74.612492    1151.9021    1013.2301    2090.5196    387.66106 
  600000    278.27784    1081.5218   -74.751297    1156.2731    982.12016     2063.642    384.12746 
  601000    281.99257    1055.2495   -78.439963    1133.6895    995.23047      2050.48    383.27469 
  602000    286.69547    1024.2621   -89.822535    1114.0847    1011.8283    2036.0905    391.19779 
  603000    277.68607    1049.9469   -97.692747    1147.6396    980.03166    2029.9785    379.32369 
  604000    276.84695      996.241   -91.893528    1088.1345    977.07014    1973.3111    384.13775 
  605000    267.93725    1019.0643   -92.601239    1111.6655    945.62533    1964.6896    391.42991 
  606000    280.43484    1015.5376   -82.674686    1098.2123    989.73283    2005.2705    385.37831 
  607000    273.66368    1040.0758   -98.553508    1138.6293    965.83551    2005.9113    382.75405 
  608000    280.07117    1027.3836     -90.6163    1117.9999    988.44934     2015.833    386.31756 
  609000    283.82508    1028.8735    -103.0983    1131.9718    1001.6979    2030.5714    382.42815 
  610000    291.13752    1007.4864   -77.303393    1084.7898    1027.5056     2034.992    390.59318 
  611000    288.81917    1041.1424    -79.81571    1120.9581    1019.3235    2060.4659    385.29423 
  612000    282.97223     1033.146   -95.511417    1128.6574    998.68796    2031.8339    377.87076 
  613000    282.54379    1062.5364    -76.88038    1139.4168     997.1759    2059.7123     372.6361 
  614000    286.14508    1057.1311   -74.614261    1131.7454    1009.8859     2067.017    383.06648 
  615000    275.56904     1030.146   -82.627854    1112.7738    972.56007    2002.7061    384.43614 
  616000    280.80673    1022.6154   -82.487314    1105.1027    991.04531    2013.6607    382.55594 
  617000    288.51487      1055.93   -86.899693    1142.8297    1018.2495    2074.1795    384.74587 
  618000    278.84146    1059.0582   -87.949434    1147.0076    984.10933    2043.1675    376.93159 
  619000    276.59094    1088.9351   -67.582473    1156.5176    976.16662    2065.1017    378.96343 
  620000     293.3068    1062.1351   -68.595474    1130.7305    1035.1615    2097.2966    380.58417 
  621000    290.77413    1049.8428   -76.290463    1126.1332     1026.223    2076.0658    378.42292 
  622000    287.42974    1039.3678   -75.329898    1114.6977    1014.4198    2053.7875    390.92246 
  623000    279.65158    1026.3769   -71.347585    1097.7245    986.96847    2013.3454    388.79303 
  624000    285.34261    1023.5219    -100.1905    1123.7124    1007.0537    2030.5756    383.16901 
  625000    275.36469    1047.3433   -90.996801    1138.3401    971.83884    2019.1821    373.06165 
  626000    276.30884    1005.6004   -104.97355     1110.574    975.17102    1980.7715    377.48073 
  627000    273.43031    1051.2686   -90.038857    1141.3075    965.01188    2016.2805    374.17429 
  628000    282.92996    1045.6886   -78.192092    1123.8807    998.53878    2044.2274    376.80473 
  629000    288.81567    1037.1702   -79.497907    1116.6681    1019.3111    2056.4813    382.08519 
  630000    279.31653    1045.2216   -88.679734    1133.9013    985.78598    2031.0076    374.39797 
  631000    286.61146    1034.9182    -80.38151    1115.2997    1011.5318      2046.45    374.84838 
  632000    279.76429    997.14865   -87.469124    1084.6178    987.36627    1984.5149     387.6306 
  633000    279.64669    1030.9262   -90.121595    1121.0478     986.9512    2017.8774    384.24985 
  634000    282.88635    1012.9159   -83.051024    1095.9669    998.38488    2011.3008    385.58779 
  635000    282.01769     1028.375   -101.18608    1129.5611    995.31913    2023.6941    385.40249 
  636000    282.33254    1046.4817   -87.525193    1134.0069    996.43032     2042.912    384.87125 
  637000    278.53934    1028.5932   -92.278715    1120.8719    983.04307    2011.6363    389.33421 
  638000    273.92829    1044.5859   -79.901616    1124.4875    966.76941    2011.3553    386.10952 
  639000    275.49781    1025.9846   -95.056508    1121.0411    972.30867    1998.2933    388.62315 
  640000     275.7712    1026.9824   -82.529338    1109.5117    973.27354    2000.2559    394.16705 
  641000    280.71537     997.4813   -84.936913    1082.4182    990.72289    1988.2042    381.11984 
  642000    280.88129    1030.1105   -81.197339    1111.3079    991.30848     2021.419    384.82791 
  643000    288.00101    1039.3085   -78.691631    1118.0001    1016.4359    2055.7445    395.38443 
  644000    280.31989     1045.325   -74.152103    1119.4772    989.32714    2034.6522    383.02205 
  645000    287.50488    1030.3256   -77.264412      1107.59     1014.685    2045.0106    386.02272 
  646000    288.56501    1028.5054   -76.420836    1104.9262    1018.4265    2046.9318    392.47441 
  647000    289.38604    1033.3794   -76.465498    1109.8449    1021.3241    2054.7035    394.24994 
  648000    281.91762    1076.1277   -65.550419    1141.6781    994.96596    2071.0937    393.79449 
  649000    281.30888    1068.5714   -74.753933    1143.3253    992.81755    2061.3889    389.88651 
  650000    283.93317    1002.7605   -82.761778    1085.5223    1002.0794    2004.8399    399.13957 
  651000    282.79775    1061.7843   -81.748482    1143.5327     998.0722    2059.8565    389.29027 
  652000    278.17284    1079.9119   -97.099338    1177.0113    981.74961    2061.6616    386.41411 
  653000    295.26128    1044.1691   -90.194283    1134.3634    1042.0595    2086.2285    388.47711 
  654000    294.41105    1075.4249   -82.660449    1158.0853    1039.0588    2114.4836    389.76885 
  655000    294.14714    1050.3358   -69.217087    1119.5529    1038.1273    2088.4631    389.80297 
  656000     283.1102    1053.3993    -71.17245    1124.5718    999.17491    2052.5743    390.89074 
  657000    273.89367    1057.2475   -82.471276    1139.7188    966.64721    2023.8947    394.52958 
  658000    289.63851     1017.866   -73.213534    1091.0795    1022.2151    2040.0811    387.67546 
  659000    270.37305    1060.4416   -58.892734    1119.3343    954.22196    2014.6635    398.37723 
  660000    262.54078    1036.9431   -78.411961    1115.3551     926.5797    1963.5228    395.42146 
  661000    275.18667    1027.6773   -85.195123    1112.8725    971.21055    1998.8879    395.75141 
  662000    273.59272    1014.4533   -84.881679     1099.335    965.58505    1980.0384    397.55886 
  663000     278.0277    1074.0406    -68.78731    1142.8279    981.23734     2055.278    399.14397 
  664000     281.8467    1065.1119    -67.39957    1132.5115    994.71568    2059.8276    395.85006 
  665000    279.51118    1036.2158   -76.797307    1113.0131    986.47297    2022.6888    395.42283 
  666000    272.95298    1043.9994   -86.283677     1130.283    963.32723    2007.3266    405.41152 
  667000    274.34004    1021.3603   -110.05953    1131.4199    968.22256    1989.5829    398.91445 
  668000    276.60928    1019.8134    -76.72101    1096.5344    976.23134    1996.0447    394.03035 
  669000    278.93816     989.8606   -81.243024    1071.1036    984.45061    1974.3112    392.10691 
  670000    270.97475     1009.177   -84.467967     1093.645    956.34553    1965.5226    386.60615 
  671000    275.09376    1036.2178   -88.727145     1124.945    970.88264    2007.1005    390.63517 
  672000     284.6907    1010.3927   -80.295756    1090.6884    1004.7529    2015.1456    390.97723 
  673000    285.61133     1061.883   -82.974533    1144.8575    1008.0021    2069.8851    393.50075 
  674000    284.91025    1043.8706   -75.530472    1119.4011    1005.5278    2049.3984    382.85737 
  675000    286.92427    1012.1426   -78.165732    1090.3083    1012.6358    2024.7784    386.86052 
  676000    284.01013    1037.5306   -82.629316    1120.1599     1002.351    2039.8816    388.18907 
  677000    285.43686    1015.1496    -101.0152    1116.1648    1007.3863     2022.536    390.02734 
  678000    281.16805    1046.9599   -80.995523    1127.9554    992.32054    2039.2804    385.67437 
  679000    284.56948    1055.9255   -86.601741    1142.5272    1004.3251    2060.2506    384.89233 
  680000     285.6909    1037.5456   -71.748959    1109.2945    1008.2829    2045.8285     389.4788 
  681000    268.74675    1089.5484    -77.21977    1166.7682     948.4823    2038.0307     396.4856 
  682000    286.61967    1074.1085     -91.4632    1165.5717    1011.5608    2085.6693    387.99438 
  683000    284.31579    1086.8989   -76.774806    1163.6737    1003.4298    2090.3287    384.67608 
  684000    302.12537    1013.0198   -90.640247      1103.66    1066.2847    2079.3045    393.94231 
  685000    279.57466    1015.7719   -84.785768    1100.5577    986.69702     2002.469    390.09163 
  686000    290.52743    1016.8903   -91.093702     1107.984    1025.3524    2042.2426    393.16525 
  687000     289.4889    1035.8428   -90.032281    1125.8751    1021.6871    2057.5299    396.82835 
  688000    291.18612    1005.0903   -77.863924    1082.9542    1027.6771    2032.7674     394.5906 
  689000    277.45552    1044.3328   -75.691053    1120.0239    979.21796    2023.5508    399.04393 
  690000    284.58777    1062.5553   -76.349095    1138.9044    1004.3897     2066.945    402.06406 
  691000    283.82546    1039.9097    -73.15285    1113.0626    1001.6993     2041.609    394.87011 
  692000    285.23481    1040.1379   -84.764547    1124.9024    1006.6732    2046.8111    391.20759 
  693000    278.79086     1051.183   -66.523581    1117.7065    983.93076    2035.1137    398.80029 
  694000    278.93454    1039.4109   -67.173089     1106.584    984.43784    2023.8487      394.945 
  695000    274.04574    1058.8426   -73.406629    1132.2493    967.18389    2026.0265    396.55344 
  696000    273.70228    1047.6735   -84.451475     1132.125    965.97173    2013.6453    400.69479 
  697000    277.05414     1024.724   -82.810198    1107.5342    977.80139    2002.5254    393.56632 
  698000    272.17415    1043.9662   -74.369213    1118.3354    960.57855    2004.5448    397.33907 
  699000    276.83948    1029.4212   -67.157011    1096.5782    977.04379     2006.465    396.69085 
  700000    275.49411    1037.7975   -77.191424    1114.9889    972.29561    2010.0931    394.78758 
  701000    279.40006    1013.6761   -68.503006    1082.1791    986.08078    1999.7569    396.29507 
  702000    294.94521    1026.6492   -80.509937    1107.1592     1040.944    2067.5932    399.47195 
  703000    291.48884    1002.0052   -90.202742     1092.208    1028.7455    2030.7507    395.96622 
  704000    285.35148     1055.296   -86.084283    1141.3803     1007.085     2062.381    397.22596 
  705000    280.17104    1072.1264   -71.737223    1143.8636    988.80181    2060.9282    397.17829 
  706000    269.01516    1092.3028   -60.689615    1152.9924    949.42959    2041.7324    401.43584 
  707000    290.83111    1041.2041   -84.129806    1125.3339    1026.4241    2067.6282    407.80614 
  708000    288.81046    1019.2481   -81.775394    1101.0235    1019.2927    2038.5409    397.28212 
  709000    272.01889    1060.2114   -58.963682    1119.1751    960.03059     2020.242    400.25753 
  710000    272.34791    1055.5793   -70.527035    1126.1063    961.19178    2016.7711    410.38582 
  711000    263.89556    1044.2706   -78.809761    1123.0803     931.3611    1975.6317    406.62727 
  712000    283.98967    1033.9765   -84.978587    1118.9551    1002.2788    2036.2553    400.54625 
  713000    282.76963    1029.3834   -64.463064    1093.8464    997.97296    2027.3563    395.18688 
  714000    288.07647    1033.8246   -64.626618    1098.4512    1016.7023    2050.5268    407.44779 
  715000     279.9737    1061.0042    -77.88685    1138.8911    988.10531    2049.1095    409.00421 
  716000    285.82188    1029.6701   -75.118797    1104.7889    1008.7452    2038.4153    405.18727 
  717000    284.81146    1070.5665   -82.025876    1152.5924    1005.1791    2075.7456    403.94665 
  718000    281.30843    1029.2597   -78.772526    1108.0322    992.81595    2022.0757     392.6076 
  719000    287.10439    1029.1611   -66.767125    1095.9283    1013.2715    2042.4327    400.57913 
  720000    281.37812    1008.9019   -86.669843    1095.5718    993.06193    2001.9639    405.10815 
  721000    281.59536    1057.0485   -75.346424     1132.395    993.82862    2050.8772    403.92152 
  722000    285.80576     1021.342   -69.413531    1090.7556    1008.6883    2030.0303    402.84922 
  723000    282.80706    1054.6905   -73.322106    1128.0126    998.10506    2052.7956    396.59802 
  724000      293.302    1015.0006   -64.350406     1079.351    1035.1446    2050.1452     401.4638 
  725000    280.31937     1048.667   -70.209844    1118.8769    989.32528    2037.9923    394.04066 
  726000    277.68894    1026.8617   -88.118223      1114.98    980.04177    2006.9035    395.00622 
  727000    275.07161    1031.6712   -85.826414    1117.4976    970.80447    2002.4757    393.41611 
  728000    280.32239    1023.6288   -67.328634    1090.9574    989.33595    2012.9647    394.63387 
  729000    288.93194    1043.8012   -62.364071    1106.1653    1019.7215    2063.5227    398.99842 
  730000    278.04903    1087.0841   -82.532972    1169.6171    981.31262    2068.3967    400.31021 
  731000    277.84651    1070.3133   -75.531229    1145.8445     980.5979    2050.9112    403.37819 
  732000    270.64759    1050.6525   -81.677376    1132.3298    955.19089    2005.8434    401.20025 
  733000    277.33653    1001.0325   -85.224772    1086.2573    978.79803    1979.8306     399.2561 
  734000    276.15287    1020.3247   -83.325355      1103.65    974.62056    1994.9452    395.62803 
  735000    289.15478    1000.8837   -72.207323     1073.091    1020.5079    2021.3916    392.71402 
  736000     282.5504    999.45223   -60.843565    1060.2958    997.19922    1996.6514    399.39129 
  737000     279.5261    1033.2944   -91.308099    1124.6025    986.52562      2019.82    397.77106 
  738000    284.19774    979.52412   -99.488231    1079.0124    1003.0131    1982.5373    391.94039 
  739000    273.14615    1030.2802   -78.920796     1109.201    964.00899    1994.2892    392.59313 
  740000    269.92824    1019.0642   -90.443624    1109.5078    952.65208    1971.7162    398.40187 
  741000     265.1156    1064.3053   -79.476616    1143.7819    935.66695    1999.9722    393.54328 
  742000    286.16995    1019.9342   -86.332986    1106.2671    1009.9736    2029.9078    400.69817 
  743000    282.45485      1051.62   -78.654297    1130.2743      996.862     2048.482    402.59001 
  744000    296.79813    1039.9197   -71.611914    1111.5316    1047.4834    2087.4032    402.20077 
  745000    286.36767    1015.6269   -76.536951    1092.1638    1010.6714    2026.2983    405.17316 
  746000    278.62316    1029.2486   -80.701871    1109.9504    983.33888    2012.5875    395.28171 
  747000    280.12229    1048.4907   -66.719052    1115.2097    988.62975    2037.1204    402.08911 
  748000    274.38547    1036.1585     -70.3979    1106.5564    968.38289    2004.5414    400.38593 
  749000    291.50654    971.39432   -91.540307    1062.9346    1028.8079    2000.2023     403.5665 
  750000     287.5035     1049.538   -82.557372    1132.0953    1014.6801    2064.2181    397.55892 
  751000    282.37962    1007.8127   -84.252202    1092.0649    996.59648    2004.4092    403.86772 
  752000    272.69976     1000.991    -74.14365    1075.1346    962.43355    1963.4245    398.34482 
  753000    275.74314    967.98478   -89.172486    1057.1573     973.1745    1941.1593    392.82284 
  754000    272.51683    1087.6639   -77.039345    1164.7033    961.78794    2049.4519    391.69954 
  755000    282.81667    1055.7885   -75.843013    1131.6316    998.13895    2053.9275    396.27936 
  756000    287.28251    1057.7632   -85.476189    1143.2393    1013.9002    2071.6633     386.7028 
  757000    302.66539     1022.787   -100.61266    1123.3997    1068.1906    2090.9776    385.74139 
  758000    288.55325    1075.5443   -76.859041    1152.4034    1018.3849    2093.9293    387.18283 
  759000    291.09575     1075.557   -84.326102    1159.8831    1027.3582    2102.9151    382.21286 
  760000    283.15045    1029.4731   -84.446722    1113.9199    999.31695    2028.7901    388.91861 
  761000    284.50193    1013.4129   -94.673859    1108.0868    1004.0867    2017.4997    385.55621 
  762000    283.53582    1047.0459   -96.855036     1143.901     1000.677     2047.723    384.67443 
  763000    277.15501    1049.2334   -87.447439    1136.6809     978.1574    2027.3908    391.90521 
  764000    289.43192    992.82256   -83.382679    1076.2052     1021.486    2014.3086     396.6739 
  765000    273.90925    1054.7506     -87.3532    1142.1038    966.70219    2021.4528     395.4597 
  766000    276.07289     1034.312   -84.520109    1118.8321    974.33827    2008.6503    391.71848 
  767000    290.90683    1044.6122   -99.505218    1144.1175    1026.6914    2071.3036    391.67412 
  768000    283.86542    1033.0785   -70.217455     1103.296    1001.8403    2034.9188    391.03871 
  769000    286.48277    1019.3554   -78.797131    1098.1525    1011.0776     2030.433    393.56616 
  770000    286.90644    996.19948   -91.379745    1087.5792    1012.5729    2008.7724    398.41043 
  771000    282.97877    1061.6495   -71.106024    1132.7555    998.71106    2060.3606    390.58809 
  772000    288.01713    1056.3138   -88.763717    1145.0776    1016.4928    2072.8067    395.57362 
  773000    290.53681    1021.3015   -98.738072    1120.0395    1025.3855     2046.687    392.35997 
  774000    282.59131    1053.6148   -79.172367    1132.7872    997.34359    2050.9584    392.12382 
  775000     285.2599       1039.2   -88.220256    1127.4202    1006.7618    2045.9618    389.86233 
  776000    287.77576    1045.9317   -86.237595    1132.1693     1015.641    2061.5727    396.02599 
  777000    285.30318    1051.9314   -81.994576     1133.926    1006.9145     2058.846    395.24016 
  778000    279.73977    1029.8357    -75.55589    1105.3916    987.27973    2017.1155    387.18227 
  779000    279.11916    1044.6717   -79.264928    1123.9367    985.08941    2029.7612    390.88475 
  780000    287.35938     1040.177   -73.663142    1113.8402    1014.1715    2054.3485    393.56935 
  781000     291.8395    1003.3287   -86.496333     1089.825     1029.983    2033.3117    390.25628 
  782000    293.97935    1080.3063   -78.670962    1158.9772    1037.5352    2117.8415    392.88407 
  783000    289.57371    1066.1296   -95.181343    1161.3109    1021.9864     2088.116    393.83809 
  784000    288.19484    1025.4323   -98.035886    1123.4682      1017.12    2042.5523    383.95559 
  785000    272.45561    1059.7855   -73.302485     1133.088    961.57187    2021.3574    384.16808 
  786000    286.27988    1034.1095   -80.254451     1114.364    1010.3616    2044.4711    386.67896 
  787000    273.11887    1040.5897   -78.301477    1118.8911    963.91273    2004.5024    394.75506 
  788000    279.80067    998.87384   -77.160648    1076.0345    987.49465    1986.3685    393.22075 
  789000    279.10274    1028.9112    -83.80292    1112.7141    985.03148    2013.9427    396.95587 
  790000    278.71913    1035.6021   -80.675572    1116.2776     983.6776    2019.2797    396.45436 
  791000    277.46063    1026.5681   -64.750599    1091.3187    979.23599    2005.8041    393.90695 
  792000    283.02207    1055.5708   -79.279483    1134.8502    998.86386    2054.4346    396.30753 
  793000      289.005    1059.9878   -82.064906    1142.0527    1019.9793    2079.9671    391.35063 
  794000    278.13168    1030.3972   -87.924469    1118.3217    981.60433    2012.0016    391.42408 
  795000     273.1368    1003.0989   -104.63242    1107.7313    963.97599    1967.0749    388.72379 
  796000    272.77288    1036.6574   -97.015014    1133.6724    962.69162     1999.349     394.6334 
  797000    278.50336    1028.1876   -89.005625    1117.1932    982.91607    2011.1037    398.14216 
  798000    281.59818     1009.211   -85.796637    1095.0076    993.83857    2003.0496    404.00675 
  799000    279.39183    1054.2469   -76.911571    1131.1584    986.05176    2040.2986    397.04118 
  800000    278.78216    1033.2239   -82.645981    1115.8699    983.90007     2017.124     397.8624 
  801000    282.47152    1039.0738   -91.365029    1130.4389    996.92083    2035.9947     399.6454 
  802000    283.90014    988.83618   -95.865831     1084.702    1001.9628     1990.799     388.5889 
  803000    277.16146    1008.5528   -88.732215     1097.285    978.18016    1986.7329    392.64479 
  804000    280.80675    1015.2644   -90.449779    1105.7142    991.04539    2006.3098    400.40239 
  805000    287.42697    1025.6939   -102.32118    1128.0151      1014.41    2040.1039     390.7198 
  806000    285.10067     1014.039   -101.75388    1115.7929    1006.1998    2020.2388    388.72853 
  807000     283.3269    1029.0944   -90.051015    1119.1454    999.93969     2029.034    391.99499 
  808000    278.34876    1043.6349   -75.467788    1119.1027    982.37046    2026.0053    392.71277 
  809000    279.03652    1013.9817   -74.101348    1088.0831    984.79774    1998.7795    396.64468 
  810000    288.14277    1002.7337   -71.607367    1074.3411    1016.9363      2019.67    393.47915 
  811000     270.3508     1028.568   -80.444792    1109.0128    954.14344    1982.7115    401.21354 
  812000    276.54822    1009.6065   -73.318545    1082.9251    976.01584    1985.6223     390.9065 
  813000    275.20517    998.85028   -92.699462    1091.5497    971.27584    1970.1261    392.12621 
  814000    275.85988    1007.4168   -92.692544    1100.1094    973.58651    1981.0033    392.23165 
  815000    276.66152    1031.2575   -81.263551    1112.5211    976.41573    2007.6733    387.12571 
  816000      267.344    1067.8202     -63.7882    1131.6084    943.53159    2011.3518    391.25607 
  817000    284.66101    1027.5009   -83.245299    1110.7462    1004.6481     2032.149    391.12146 
  818000    281.00647    1041.4651   -79.253216    1120.7183    991.75027    2033.2154    389.12867 
  819000    276.66144    1034.0418   -88.916552    1122.9584    976.41543    2010.4572    390.75781 
  820000    275.40253    1030.8821    -88.53828    1119.4204    971.97238    2002.8545    391.16765 
  821000    278.61678    1030.5344   -87.078275    1117.6127    983.31639    2013.8508    385.90883 
  822000    287.80852     1052.259   -84.362881    1136.6219    1015.7566    2068.0156    395.80721 
  823000    287.35801    1084.6616    -92.53137     1177.193    1014.1666    2098.8283     390.2387 
  824000     295.9117    1030.3081   -81.652126    1111.9602     1044.355    2074.6631    390.54885 
  825000    285.37673    1062.5279   -88.415324    1150.9432    1007.1741     2069.702    384.23728 
  826000    287.15211    1051.9589   -91.666294    1143.6252      1013.44    2065.3989    386.49509 
  827000    285.87664    1018.6727   -83.575303     1102.248    1008.9384    2027.6112    392.51079 
  828000    279.19158    1064.2884   -94.144178    1158.4326      985.345    2049.6334    392.65551 
  829000    279.04349    1047.8792   -81.849358    1129.7286    984.82234    2032.7016    391.52892 
  830000    278.24645    1073.8201   -85.720185    1159.5403    982.00936    2055.8294    391.37533 
  831000    288.27274    1075.6519   -94.521563    1170.1735     1017.395    2093.0469    392.19212 
  832000     296.0558    1015.3903   -100.21284    1115.6031    1044.8635    2060.2538    392.94058 
  833000    272.59448    1092.6199   -72.178642    1164.7985    962.06202    2054.6819    385.44751 
  834000     281.6672    1046.2139   -77.398491    1123.6123    994.08216     2040.296    395.32047 
  835000    282.66651    1024.5567   -88.907213    1113.4639    997.60902    2022.1657    395.43569 
  836000    279.92942    997.03168     -98.4464    1095.4781    987.94905    1984.9807    389.97804 
  837000    273.64163     1035.156   -88.066772    1123.2228    965.75767    2000.9137    392.50415 
  838000    279.10929    962.89673   -80.215013    1043.1117    985.05459    1947.9513    394.60367 
  839000    271.89501    1006.9559   -103.73987    1110.6957    959.59336    1966.5492    393.47245 
  840000    275.46723    982.56228   -100.95834    1083.5206    972.20074     1954.763    394.87935 
  841000    267.63002    990.83846   -75.015108    1065.8536    944.54103    1935.3795    393.41052 
  842000    271.35415    1004.0201   -84.069519    1088.0896    957.68451    1961.7046    400.01396 
  843000    278.97078    1041.0149   -79.192748    1120.2077    984.56574    2025.5807     388.7243 
  844000    271.18729    1048.2999   -81.278357    1129.5782    957.09564    2005.3955    395.09502 
  845000    283.21018    1011.5814   -92.910474    1104.4918    999.52778    2011.1092     397.5804 
  846000    284.83073    1062.5327   -71.905034    1134.4377    1005.2471    2067.7798    396.66513 
  847000    283.57448    1013.7322    -87.55991    1101.2921    1000.8135    2014.5457    392.98621 
  848000    268.28734    1073.1477    -79.74877    1152.8965     946.8609    2020.0086    387.32371 
  849000    278.12947    1009.9947   -80.948552    1090.9433    981.59651    1991.5912    388.19578 
  850000    289.48423    1030.2151   -95.085996     1125.301    1021.6707    2051.8857    390.85526 
  851000    281.84437    1048.0804   -86.882168    1134.9626    994.70743    2042.7879    385.13021 
  852000    280.68914    1021.0668    -98.75235    1119.8191    990.63033    2011.6971     393.2906 
  853000    281.34173    1070.3639   -96.942026    1167.3059    992.93349    2063.2974    387.08947 
  854000    265.66804    1055.8698    -90.32118     1146.191    937.61666    1993.4865    384.83586 
  855000    277.45234    1019.8048   -89.523596    1109.3284    979.20675    1999.0116    389.41617 
  856000     279.4741    1015.1385   -92.677062    1107.8155    986.34208    2001.4806    394.93496 
  857000    285.60899    1025.3325   -82.727824    1108.0604    1007.9939    2033.3264    397.88276 
  858000    267.18652    1075.4474   -70.391579     1145.839     942.9758    2018.4232    393.23047 
  859000    276.26148    1072.1854   -70.914731    1143.1002    975.00388    2047.1893    392.84105 
  860000    279.57953    1014.0197   -69.518798    1083.5385    986.71418    2000.7339    403.75179 
  861000    282.22449    1058.5287    -72.76481    1131.2935    996.04898    2054.5777    398.80293 
  862000    286.99634    1024.9483    -66.93561    1091.8839    1012.8902    2037.8385    394.39264 
  863000    279.96787    1042.3396   -82.552853    1124.8925    988.08475    2030.4244    398.95633 
  864000    273.17932     1064.086   -77.999502    1142.0855    964.12605    2028.2121    411.98654 
  865000    282.70145    1029.3954   -73.888951    1103.2844    997.73232    2027.1277    409.00624 
  866000    286.60682    1041.5547   -73.667615    1115.2223    1011.5155    2053.0702    399.79764 
  867000    282.53215    1052.0699   -73.741522    1125.8114    997.13481    2049.2047    399.95334 
  868000    288.26358    1086.0355   -74.327167    1160.3627    1017.3626    2103.3982    401.82241 
  869000     294.7512    1094.4782   -65.390872    1159.8691    1040.2593    2134.7375    402.66196 
  870000    285.99658    1072.0582   -86.860328    1158.9185    1009.3617    2081.4199    395.43715 
  871000    295.87121    1058.1573   -90.863097    1149.0204    1044.2121    2102.3693    388.11866 
  872000    292.30377    1039.3394   -83.727769    1123.0672    1031.6216     2070.961    396.37032 
  873000    284.77924    1054.9306   -87.458148    1142.3887    1005.0654     2059.996    394.49295 
  874000    269.86258    1014.0393   -76.759759     1090.799    952.42036    1966.4596    400.13034 
  875000    280.61167    1023.4863   -79.901291    1103.3876     990.3569    2013.8432    398.70291 
  876000     272.3127    1058.5394   -81.023947    1139.5634    961.06752    2019.6069    400.45613 
  877000    287.58016    1006.6158   -84.685116    1091.3009    1014.9506    2021.5664    400.51599 
  878000    275.42734    1013.3953   -96.252972    1109.6483    972.05994    1985.4553    397.42452 
  879000    271.29437    1027.9843   -89.171133    1117.1555    957.47356    1985.4579    396.72355 
  880000    280.47928    997.87159   -86.111129    1083.9827    989.88967    1987.7613    388.29259 
  881000    279.09254    1026.7346   -93.531835    1120.2665    984.99547    2011.7301    394.65847 
  882000    282.02769     1015.933   -93.863212    1109.7962    995.35443    2011.2874    393.55274 
  883000    277.33496    1002.1757   -90.899497    1093.0752    978.79248    1980.9682    388.27173 
  884000    272.40966    967.05698   -101.99969    1069.0567    961.40973    1928.4667    393.70832 
  885000    276.44195    1010.5484   -84.151644       1094.7    975.64081    1986.1892    386.43849 
  886000    275.93538    1026.8644   -80.065835    1106.9302    973.85296    2000.7173    384.37029 
  887000    278.42328    1013.4485   -80.936727    1094.3852    982.63346     1996.082    390.84287 
  888000    272.78485    999.59651   -81.336002    1080.9325    962.73387    1962.3304    390.50393 
  889000    275.05508    1021.2036   -96.170174    1117.3737    970.74614    1991.9497    397.34357 
  890000    279.23957    1045.5619   -82.996775    1128.5587    985.51438    2031.0763    399.58651 
  891000    284.98914    1030.3387   -71.403346     1101.742    1005.8062    2036.1449    399.41509 
  892000    268.61586    1060.2619    -64.66091    1124.9228    948.02033    2008.2823    399.54074 
  893000    287.96011    1032.4004   -97.319954    1129.7203    1016.2916     2048.692    395.43124 
  894000    283.38873    1048.5155   -87.804355    1136.3199    1000.1579    2048.6735      380.159 
  895000    288.03691     1015.526   -92.713594    1108.2396    1016.5627    2032.0886     387.5437 
  896000    278.60265    1009.6777   -77.563928    1087.2416    983.26651    1992.9442     385.0605 
  897000    280.02734    1003.9785   -85.569744    1089.5482    988.29464    1992.2731    385.20849 
  898000    286.62843    978.48804   -93.399473    1071.8875    1011.5917    1990.0798    382.58034 
  899000     266.7745    1031.2831   -96.271709    1127.5548    941.52167    1972.8047    386.85395 
  900000     277.6003    1011.4715   -81.914943    1093.3864    979.72895    1991.2004    395.23231 
  901000    279.29153    1050.1684   -84.850214    1135.0186    985.69777    2035.8661    399.93243 
  902000    288.89918    1043.9229   -82.700328    1126.6232    1019.6058    2063.5287    391.13554 
  903000     284.2585    1028.9614   -76.693174    1105.6546    1003.2276     2032.189    390.08957 
  904000      294.087    1045.5779   -90.679391    1136.2573    1037.9151     2083.493    392.74237 
  905000    283.83486    1081.5171   -69.344251    1150.8614    1001.7324    2083.2496    391.66621 
  906000    280.89149    1060.0946   -65.408903    1125.5035    991.34448    2051.4391    397.46391 
  907000    288.38459     1045.469   -81.393751    1126.8627    1017.7897    2063.2587    406.63892 
  908000    292.46996    1039.5773   -79.533998    1119.1113    1032.2081    2071.7854    401.66027 
  909000    292.74056    1032.8939   -77.743607    1110.6375    1033.1631     2066.057    399.86322 
  910000    285.25574    1049.0537   -80.304547    1129.3583    1006.7471    2055.8009    404.19966 
  911000    278.83277    1048.3579   -84.976068     1133.334    984.07866    2032.4366    402.08793 
  912000     282.1257     1042.068   -74.063646    1116.1316    995.70032    2037.7683     403.2901 
  913000    276.82427    1040.2793   -65.814039    1106.0933     976.9901    2017.2694    401.60841 
  914000    275.38514    1046.9289   -77.618061    1124.5469    971.91103    2018.8399    399.63034 
  915000    278.02019    1023.3813   -75.241048    1098.6224    981.21083    2004.5921    396.82027 
  916000    281.34724    1016.3402   -76.994065    1093.3342    992.95292    2009.2931    397.29278 
  917000    278.10826    1028.2823   -72.518031    1100.8004    981.52167     2009.804    398.50605 
  918000    276.69585    1046.4179   -76.981192    1123.3991    976.53689    2022.9548    398.38613 
  919000    280.20471    1017.5065   -81.836925    1099.3434    988.92062    2006.4271    387.43404 
  920000    269.63923    1035.7841    -78.52054    1114.3047     951.6321    1987.4162    398.59958 
  921000    281.82453     980.2346   -81.316353    1061.5509    994.63743     1974.872     402.9047 
  922000    286.81391    1034.6705   -79.143935    1113.8144    1012.2463    2046.9168    399.39537 
  923000    272.90029    1047.7794   -107.32006    1155.0995    963.14131    2010.9207    394.21457 
  924000    277.42233    1007.5168   -94.425496    1101.9423    979.10082    1986.6177    383.59079 
  925000    270.64032    1023.8235   -69.857789    1093.6813    955.16522    1978.9887    395.13916 
  926000    272.10767    1026.0972     -65.8925    1091.9897    960.34391    1986.4411     388.0683 
  927000    281.05808    1051.6915   -75.832751    1127.5242    991.93241    2043.6239    398.50996 
  928000    287.80444    1027.8218   -78.757228    1106.5791    1015.7422     2043.564    394.96143 
  929000    286.35288    1002.0936   -66.682139    1068.7757    1010.6192    2012.7128     398.4494 
  930000    278.48903    1028.2025   -72.062902    1100.2654    982.86551     2011.068    400.66759 
  931000     270.6827    1026.1068    -77.60058    1103.7074    955.31479    1981.4216    395.89591 
  932000    266.76733    1036.0819   -74.770708    1110.8526    941.49635    1977.5783    392.77876 
  933000    275.64929    1000.1601   -92.726418    1092.8866    972.84328    1973.0034    395.14051 
  934000    286.26828    1000.8518   -83.243867    1084.0956    1010.3207    2011.1724    387.04388 
  935000    273.91529    1007.0487   -73.789393    1080.8381    966.72352    1973.7722    391.35803 
  936000    281.65572    1068.3736    -65.17612    1133.5497    994.04164    2062.4152    383.73839 
  937000    293.66662    1015.5793   -79.303541    1094.8828    1036.4315    2052.0108    388.86248 
  938000    282.26977    1110.9961   -71.141421    1182.1375     996.2088    2107.2049    382.01316 
  939000    285.10118    1061.0119    -74.42903    1135.4409    1006.2016    2067.2135     387.6767 
  940000    291.36621     1039.133   -74.779673    1113.9127    1028.3127    2067.4457    390.92995 
  941000    291.38993    1014.2467   -79.770539    1094.0173    1028.3964    2042.6431    387.30821 
  942000    278.78473    1004.7408   -96.222333    1100.9631     983.9091    1988.6499    397.96459 
  943000    277.39648    1008.3752   -87.367122    1095.7423    979.00959    1987.3848    395.64921 
  944000    279.52257    1059.1532   -81.197748     1140.351    986.51317    2045.6664    398.22341 
  945000    276.08825    1066.7487   -64.847353    1131.5961    974.39249    2041.1412    394.84715 
  946000    280.00622     1022.751   -88.544568    1111.2956     988.2201    2010.9711    399.25743 
  947000    275.93206    1030.3337   -75.397724    1105.7314    973.84124    2004.1749    393.25527 
  948000    276.03901    1070.8959   -68.942917    1139.8388    974.21871    2045.1146    395.49329 
  949000    283.67663    1042.1259   -84.305913    1126.4318     1001.174    2043.2999    394.98521 
  950000    281.44196    1067.9421   -87.097455    1155.0396    993.28722    2061.2293     397.8965 
  951000    287.26359    1051.2574   -85.727396    1136.9848    1013.8334    2065.0908    388.32049 
  952000    288.10912    1020.4713   -85.552807    1106.0241    1016.8175    2037.2888    399.98439 
  953000     285.7942    1024.2716   -83.746597    1108.0182    1008.6475    2032.9191    393.39278 
  954000    275.28653    1007.1668   -88.769767    1095.9365    971.56301    1978.7298    400.19243 
  955000    272.61731     1072.048   -69.081785    1141.1298    962.14259    2034.1906     399.2539 
  956000    284.48807    1005.3454   -84.625205    1089.9706    1004.0378    2009.3832    399.21158 
  957000    279.67541    1018.4256   -69.829609    1088.2552    987.05259    2005.4781    389.81339 
  958000    275.00389    1047.8736   -88.632176    1136.5058    970.56547    2018.4391    386.15208 
  959000     286.7422    1009.4734   -66.313642     1075.787    1011.9933    2021.4666     392.0392 
  960000    286.36861    1025.7154   -70.514138    1096.2295    1010.6747    2036.3901    385.90203 
  961000    273.57287    1038.1723   -91.439242    1129.6115    965.51501    2003.6873    390.69998 
  962000     274.2504    1038.8618   -88.815768    1127.6775     967.9062     2006.768    383.03223 
  963000    266.87579    1044.1774   -78.253139    1122.4306    941.87913    1986.0566    396.19564 
  964000    263.75334    1004.2988   -88.276996    1092.5758    930.85916    1935.1579    379.35547 
  965000    273.73466    1021.0989   -85.442114     1106.541    966.08602    1987.1849    384.33883 
  966000    276.35652    1024.5415   -82.793948    1107.3354    975.33929    1999.8808    387.01156 
  967000    274.01231    1046.6265   -71.725254    1118.3518    967.06593    2013.6924    399.77362 
  968000    286.06312    1048.6253   -64.131831    1112.7571    1009.5966    2058.2219    388.34739 
  969000    277.30011    1040.7727    -84.66881    1125.4415    978.66949    2019.4422     384.8472 
  970000    283.20485    1008.6678   -74.513045    1083.1809    999.50896    2008.1768    383.92246 
  971000    277.76212    1047.5293   -78.360964    1125.8902    980.30004    2027.8293    388.05238 
  972000    276.85901    1053.1534    -86.62128    1139.7746    977.11271    2030.2661    388.46559 
  973000    281.04492    1043.4315   -80.960409    1124.3919    991.88597    2035.3175    381.15183 
  974000    276.57352     1062.415   -76.155437    1138.5705    976.10514    2038.5202    384.68555 
  975000    285.63931    1034.6469   -97.257111     1131.904    1008.1008    2042.7477    387.56368 
  976000    280.88407    1010.6108   -85.863412    1096.4742    991.31829    2001.9291    384.39085 
  977000    270.68414    1005.1225    -101.2034    1106.3259    955.31988    1960.4424    384.68656 
  978000    283.73746    1035.7456   -85.723259    1121.4688    1001.3887    2037.1342    387.96662 
  979000    277.00493     1027.489   -90.148806    1117.6378    977.62771    2005.1167    396.69015 
  980000    282.84091    991.99667   -83.901823    1075.8985    998.22451    1990.2212    391.84512 
  981000    277.37093    1017.5486   -87.459462    1105.0081    978.91941     1996.468    393.91767 
  982000    266.00857    1050.3587    -70.62768    1120.9864    938.81849    1989.1772    395.33326 
  983000    279.96327    1066.1901   -85.804147    1151.9942    988.06853    2054.2586    395.60538 
  984000    273.54926    1081.7843   -83.522113    1165.3064    965.43169     2047.216    389.16117 
  985000    280.11846    1001.7458   -76.263482    1078.0093    988.61623     1990.362    379.29184 
  986000    273.62016    1048.4065   -85.380597    1133.7871    965.68191    2014.0884    382.47638 
  987000    286.30421     1031.332   -84.710104    1116.0421    1010.4475    2041.7795    379.39372 
  988000    274.84979    1054.9896   -80.566595    1135.5562    970.02163    2025.0112    380.33242 
  989000    286.28426    1036.7979    -75.92796    1112.7259    1010.3771     2047.175    396.50927 
  990000    287.95949    1051.7497   -60.929453    1112.6792    1016.2894    2068.0391    395.51183 
  991000    282.41713    1023.4489   -84.049227    1107.4982    996.72887    2020.1778     399.6592 
  992000    289.07169    1037.7672   -78.430266    1116.1975    1020.2147    2057.9819     391.5528 
  993000    276.94193    1079.7565   -75.576712    1155.3332    977.40535    2057.1619    396.72665 
  994000    295.95172    1057.0423   -69.611497    1126.6538    1044.4962    2101.5385    402.53577 
  995000    293.05693    1059.1551   -68.656211    1127.8113    1034.2797    2093.4348    401.92192 
  996000    291.20296    1101.9636   -79.804637    1181.7682    1027.7365    2129.7001    395.95943 
  997000    288.32227    1080.9613   -87.079462    1168.0407    1017.5698     2098.531    399.18233 
  998000    284.85318    1053.0659   -71.180732    1124.2466    1005.3264    2058.3923    398.13344 
  999000    279.22582    1049.2697   -81.700964    1130.9707    985.46587    2034.7356    393.33258 
 1000000    281.87432     1039.422   -80.379665    1119.8017    994.81316    2034.2352    392.45304 
 1001000     284.0464    1051.0964   -80.864134    1131.9605     1002.479    2053.5754    393.22145 
 1002000    284.13791    1020.2856   -71.991268    1092.2768     1002.802    2023.0875    397.28867 
 1003000    287.95979    1006.2806   -86.170387     1092.451    1016.2905     2022.571    401.47867 
 1004000    278.47038    1098.1776   -80.030676    1178.2083    982.79968    2080.9773     405.7283 
 1005000    278.19156    1032.2045    -95.64834    1127.8528    981.81567    2014.0201    400.53582 
 1006000    281.36936    989.32197   -100.56999     1089.892    993.03099     1982.353    402.87959 
 1007000    277.56943     1011.149   -89.477285    1100.6263       979.62     1990.769    396.06419 
 1008000    285.03225    1058.7014   -85.996536    1144.6979    1005.9584    2064.6598    399.61618 
 1009000    293.00062    1030.5585    -96.61172    1127.1703     1034.081    2064.6395    397.42584 
 1010000     280.7212    1079.3393   -72.832683     1152.172    990.74345    2070.0828    385.37168 
 1011000    289.95664    1055.1799   -77.968045    1133.1479    1023.3379    2078.5178    391.26771 
 1012000    278.28868    1062.8691   -69.949748    1132.8188    982.15843    2045.0275    400.72634 
 1013000     278.3865    1060.0316    -94.55221    1154.5838    982.50365    2042.5352    396.26655 
 1014000    279.49936    987.03493   -87.510237    1074.5452    986.43126    1973.4662    391.97212 
 1015000    281.40165    1026.3521   -75.517687    1101.8698    993.14496     2019.497    385.56741 
 1016000    284.88023     1091.246   -63.323447    1154.5695    1005.4219    2096.6679     391.2045 
 1017000    282.99324    1067.2506   -88.328117    1155.5787    998.76212    2066.0127    393.56591 
 1018000    293.90258     1061.731   -77.268082    1138.9991    1037.2642    2098.9952    398.25284 
 1019000    287.31493    1047.8612   -79.058224    1126.9194    1014.0146    2061.8758    397.82607 
 1020000    277.13109    1030.8953   -104.71647    1135.6118    978.07297    2008.9683    396.08933 
 1021000    283.59252    1030.1022   -86.256163    1116.3584    1000.8771    2030.9794    392.37735 
 1022000    292.28542    1049.9954   -84.441165    1134.4366    1031.5568    2081.5523    391.40887 
 1023000    291.27309    1025.0041   -77.332863     1102.337     1027.984    2052.9881    391.75558 
 1024000    283.41013    1027.9427   -84.428978    1112.3717    1000.2334    2028.1762    390.08868 
 1025000    276.95616    1071.6789   -83.764493    1155.4434    977.45558    2049.1345    388.30337 
 1026000    275.07033    1085.2271   -79.053751    1164.2809    970.79996    2056.0271    396.12276 
 1027000     279.7515    1078.5468   -78.485268    1157.0321    987.32112     2065.868    398.73699 
 1028000    273.79743    1061.1773   -75.309128    1136.4864    966.30756    2027.4848    390.40086 
 1029000    283.30508    1001.0765   -77.157251    1078.2337     999.8627    2000.9392    391.92079 
 1030000    293.27109    1028.7092   -98.914583    1127.6237    1035.0355    2063.7447    398.21037 
 1031000    280.42972    1063.9903   -71.514257    1135.5046    989.71476    2053.7051    397.78871 
 1032000    283.10039    1069.3165   -74.720156    1144.0366    999.14028    2068.4567    399.45741 
 1033000    286.33801    1048.6568   -79.302504    1127.9593    1010.5668    2059.2236    392.93064 
 1034000    286.33631    1086.9908   -79.053608    1166.0444    1010.5607    2097.5516    391.16209 
 1035000    289.00168    1043.6169   -71.308387    1114.9253    1019.9676    2063.5845    395.24403 
 1036000    294.51883    1068.4003   -77.619577    1146.0199    1039.4391    2107.8395    400.03206 
 1037000    280.91468    1077.8117   -94.003289     1171.815    991.42632     2069.238    392.74894 
 1038000    282.42838    1041.5443   -72.295019    1113.8393    996.76857    2038.3129    394.45679 
 1039000    289.52374    1041.1855   -86.118263    1127.3038    1021.8101    2062.9956     403.6096 
 1040000    293.84483    1033.6626   -73.388732    1107.0514    1037.0604    2070.7231    403.65479 
 1041000    297.40017    1031.5003   -82.683996    1114.1843    1049.6082    2081.1085    400.61826 
 1042000    284.58898     1037.932   -85.102596    1123.0346    1004.3939    2042.3259    406.60163 
 1043000    283.77058    1027.5999   -82.385815    1109.9857    1001.5056    2029.1054    393.61758 
 1044000    282.72427    1011.8729   -84.382824    1096.2557    997.81286    2009.6858    395.23298 
 1045000    288.15028    1019.3741   -91.668789    1111.0429    1016.9628    2036.3369    402.62814 
 1046000    288.34533    1061.8447   -79.500374    1141.3451    1017.6511    2079.4958    401.73391 
 1047000    287.87647    1103.9723   -68.061722     1172.034    1015.9964    2119.9687    399.55454 
 1048000    278.29576    1023.1392   -76.649102    1099.7883     982.1834    2005.3226    403.07481 
 1049000    281.18333    1047.0794   -93.952356    1141.0317    992.37446    2039.4538    398.47126 
 1050000    298.97068    1018.5189   -81.117563    1099.6365     1055.151    2073.6699    398.96177 
 1051000    289.86608    1032.7873    -83.60463     1116.392    1023.0183    2055.8056    396.92624 
 1052000    275.92674    980.36813   -89.672119    1070.0402    973.82247    1954.1906    401.52045 
 1053000    273.90576    987.85966   -110.26613    1098.1258    966.68986    1954.5495    393.93639 
 1054000    274.77151    995.04934   -97.953683     1093.003    969.74533    1964.7947    390.91769 
 1055000    290.43502    976.71495   -91.048637    1067.7636    1025.0263    2001.7412    394.69747 
 1056000     278.8234    1065.6042   -87.029866    1152.6341    984.04558    2049.6498    397.23964 
 1057000    294.03728    1021.1269   -92.914691    1114.0416    1037.7396    2058.8665    394.79048 
 1058000    287.26057    1042.6975   -86.143899    1128.8414    1013.8227    2056.5203    395.41163 
 1059000    294.66545    1041.7508   -98.683309    1140.4341    1039.9566    2081.7074    397.74656 
 1060000    283.65955    1082.0765   -78.563877    1160.6404    1001.1137    2083.1902    399.73876 
 1061000    280.32971    1092.0186   -79.718217    1171.7368     989.3618    2081.3804    390.32987 
 1062000    283.69238    1059.1362   -92.894221    1152.0304    1001.2296    2060.3658    382.18564 
 1063000    295.41947    1049.4639   -85.543912    1135.0078    1042.6178    2092.0817    387.32382 
 1064000    300.11447    1040.9861   -75.280316    1116.2664    1059.1877    2100.1739    385.95759 
 1065000    284.32224    1055.3587   -73.854054    1129.2128    1003.4525    2058.8113    389.99007 
 1066000    280.98851    1039.5882   -87.454776    1127.0429    991.68687     2031.275    389.39988 
 1067000    287.30433    980.58395   -87.333357    1067.9173    1013.9772    1994.5611    385.86186 
 1068000    282.31555     1036.597    -81.73726    1118.3342    996.37036    2032.9673    380.02729 
 1069000    273.75111    1014.6598   -73.474884    1088.1347    966.14407    1980.8039    394.11552 
 1070000    270.88602    1069.2536   -92.283585    1161.5371    956.03238    2025.2859    385.33103 
 1071000    292.13808    1022.4779   -76.049334    1098.5273    1031.0368    2053.5147    389.91827 
 1072000     295.1465     1033.849    -88.36231    1122.2113    1041.6544    2075.5033    381.60843 
 1073000    286.68135    1059.9494    -92.95543    1152.9048    1011.7785    2071.7279     392.0903 
 1074000    291.13349    1042.0203   -85.433364    1127.4537    1027.4913    2069.5117    397.56653 
 1075000    278.60526    1048.1295   -67.725979    1115.8555    983.27573    2031.4052    394.16256 
 1076000    276.85827     1052.184   -74.420439    1126.6044     977.1101    2029.2941    395.42425 
 1077000    287.69491     1023.109   -80.635458    1103.7445    1015.3556    2038.4647    397.52844 
 1078000    280.78083     1074.218   -69.091584    1143.3096    990.95391    2065.1719     393.4147 
 1079000    276.41049    1051.7319   -81.143434    1132.8753    975.52977    2027.2617    393.12199 
 1080000    283.61352    1031.6289   -88.437282    1120.0662    1000.9513    2032.5802    396.54322 
 1081000    277.38093    1050.8657   -62.771701    1113.6374    978.95473    2029.8204    394.31547 
 1082000    270.72637    1042.0193   -80.707389    1122.7266    955.46892    1997.4882    385.27045 
 1083000    281.11137     1012.258   -91.260903    1103.5189    992.12047    2004.3785    394.92404 
 1084000    269.92877    1034.4775   -86.827792    1121.3053    952.65396    1987.1315    392.52792 
 1085000     273.9782    1026.6904   -84.486264    1111.1767    966.94555     1993.636    385.71733 
 1086000    284.20463    1033.0896   -71.139475    1104.2291    1003.0375    2036.1271    391.00616 
 1087000    282.15188    1048.8908   -63.772588    1112.6634    995.79274    2044.6835    394.75175 
 1088000     288.7444     1017.056   -91.869625    1108.9256    1019.0596    2036.1156     389.0496 
 1089000    284.44789    1013.6002    -89.21978      1102.82     1003.896    2017.4962    397.93945 
 1090000    279.43912    1041.1293   -74.788568    1115.9179    986.21866     2027.348    397.40787 
 1091000     290.7466    1035.1521   -74.778214    1109.9303    1026.1259     2061.278    397.69029 
 1092000    291.84743    1057.8132    -78.32297    1136.1362     1030.011    2087.8242    381.92074 
 1093000    292.06326    1067.1895   -90.474435    1157.6639    1030.7728    2097.9622    392.04229 
 1094000    285.14568    1062.9195   -69.860399    1132.7799    1006.3587    2069.2782    398.36751 
 1095000    280.87526    1068.8853   -55.873633     1124.759    991.28717    2060.1725    400.22399 
 1096000    286.83264     1091.147   -74.617746    1165.7647    1012.3124    2103.4594    406.39617 
 1097000    293.97611    1026.4462    -80.72599    1107.1722    1037.5238    2063.9699    389.20446 
 1098000    282.59378     1011.375   -81.469847    1092.8449    997.35231    2008.7274    386.20955 
 1099000    288.33133    1030.9185    -82.94209    1113.8606    1017.6017    2048.5202    388.74495 
 1100000    281.22136    1084.5722   -90.136235    1174.7085    992.50868    2077.0809    393.02909 
 1101000    282.69834     1082.216   -88.556518    1170.7726    997.72134    2079.9374    386.49478 
 1102000    278.36347    1105.8334   -84.976373    1190.8098    982.42238    2088.2558    382.81124 
 1103000    292.25936    1039.7443   -95.807793    1135.5521    1031.4648    2071.2091    388.01519 
 1104000    283.20509     1057.252   -90.381566    1147.6335    999.50979    2056.7617    384.79008 
 1105000    280.84711    1069.3584   -80.543707    1149.9021    991.18784    2060.5463    373.45105 
 1106000    280.12918    1059.3004   -89.792029    1149.0925    988.65407    2047.9545    375.86608 
 1107000    284.47453     1073.459   -95.949843    1169.4088      1003.99     2077.449    375.28157 
 1108000    275.52399    1045.5089   -72.073151     1117.582    972.40105    2017.9099    379.16226 
 1109000    275.97074     968.7036   -80.096508    1048.8001    973.97776    1942.6814    386.26365 
 1110000    265.47151    1027.4379   -71.078082     1098.516    936.92304    1964.3609    386.19866 
 1111000    274.85562     1013.522   -91.239823    1104.7619     970.0422    1983.5642    376.26049 
 1112000    279.86501    1017.4753   -93.750412    1111.2257    987.72172    2005.1971    376.41981 
 1113000    281.02963    1044.6151   -86.998422    1131.6136    991.83199    2036.4471    375.15012 
 1114000    290.23788    1025.2739     -85.8379    1111.1118    1024.3305    2049.6044    384.27689 
 1115000    292.37177    1010.3678   -88.134709    1098.5025    1031.8616    2042.2294    394.75806 
 1116000    293.30767    1061.5895   -95.716328    1157.3059    1035.1646    2096.7542    392.90664 
 1117000    281.78699    1086.7427   -82.057523    1168.8002    994.50493    2081.2476    381.29327 
 1118000    289.11876    1069.2842   -85.652947    1154.9371    1020.3808     2089.665    387.35237 
 1119000    283.83644    1046.0132    -75.86487    1121.8781     1001.738    2047.7513    389.54222 
 1120000     293.3754    1018.4117   -83.223993    1101.6357    1035.4037    2053.8153      386.934 
 1121000    277.39544    1024.1248   -88.615343    1112.7401    979.00593    2003.1307    394.83942 
 1122000    278.55909    1028.9537   -83.769432    1112.7232    983.11279    2012.0665    389.45778 
 1123000     283.6313    1057.1665   -68.787454    1125.9539     1001.014    2058.1805    385.54673 
 1124000    283.04425     1046.334   -78.573142    1124.9072    998.94215    2045.2762    390.05932 
 1125000    282.16839    1049.6218   -81.509586    1131.1314    995.85101    2045.4728    375.64473 
 1126000    286.73979    1071.1848   -83.435722    1154.6205    1011.9848    2083.1695    379.70035 
 1127000    276.21219    1033.1889   -82.506344    1115.6953    974.82991    2008.0188     389.1357 
 1128000    276.61948    1055.0959   -57.939591    1113.0355    976.26735    2031.3632    390.89247 
 1129000    282.70157    1063.8514   -74.948181    1138.7996    997.73276    2061.5842    387.44834 
 1130000     287.6551    1039.5773   -76.032084    1115.6094    1015.2151    2054.7925    382.09873 
 1131000    292.60987    1111.7432   -77.193242    1188.9364    1032.7019    2144.4451    385.81125 
 1132000    289.98994    1073.2643   -78.073179    1151.3375    1023.4554    2096.7197    381.12227 
 1133000      282.628    1055.8447   -76.646596    1132.4913    997.47309    2053.3178    380.57601 
 1134000    274.31288    1037.9327   -78.352416    1116.2851     968.1267    2006.0594    386.05911 
 1135000    271.38188    1068.8199   -80.947965    1149.7679    957.78239    2026.6023    392.51903 
 1136000    271.59627    1040.2935   -82.336193    1122.6297    958.53905    1998.8325    383.83789 
 1137000    292.11883    993.36632   -85.052256    1078.4186    1030.9689    2024.3352    385.80713 
 1138000    290.25542    1033.2733   -64.581486    1097.8548    1024.3924    2057.6657    382.46135 
 1139000    278.38977    1079.9541   -80.481336    1160.4354     982.5152    2062.4693    385.28834 
 1140000    286.53901    1059.3376   -84.272619    1143.6102    1011.2761    2070.6138    381.07523 
 1141000    285.78939    1049.2466   -101.64665    1150.8932    1008.6305    2057.8771    377.17705 
 1142000    288.47584    1042.3765   -86.809941    1129.1864    1018.1117    2060.4882    381.46543 
 1143000    277.71744     1022.443   -77.456705    1099.8997    980.14235    2002.5853    382.17715 
 1144000     288.8814    1015.5901   -86.534042    1102.1241    1019.5431    2035.1332    386.87896 
 1145000     279.0044    1006.3265    -84.86838    1091.1948    984.68441    1991.0109    385.50549 
 1146000    275.87713    1052.7483   -77.070242    1129.8186    973.64737    2026.3957    394.99032 
 1147000    274.32011    1039.7629   -84.305544    1124.0685    968.15222    2007.9152    402.85571 
 1148000    281.09528    1049.5709   -65.493261    1115.0642    992.06371    2041.6346    400.26993 
 1149000    286.27737    1032.7485   -79.057947    1111.8064    1010.3528    2043.1012    389.11354 
 1150000    279.70043    995.00513   -102.37082     1097.376    987.14088     1982.146    395.68531 
 1151000    275.61579    992.19105   -87.652196    1079.8432    972.72504    1964.9161    397.84655 
 1152000    280.78126    976.34897   -92.667298    1069.0163    990.95542    1967.3044     402.0646 
 1153000    286.09473    978.18991   -91.600025    1069.7899    1009.7081     1987.898    397.70146 
 1154000    264.31993    1089.5627   -72.824817    1162.3875    932.85881    2022.4215     396.3504 
 1155000    275.28067    988.38514   -86.754759    1075.1399    971.54233    1959.9275    390.36566 
 1156000    270.60613    991.83002   -93.564798    1085.3948    955.04457    1946.8746     391.3411 
 1157000    276.18106    973.26959   -86.926694    1060.1963    974.72003    1947.9896    392.22962 
 1158000    277.17139    961.07282   -86.664103    1047.7369     978.2152     1939.288    400.70682 
 1159000    281.42001     1003.116   -92.643739    1095.7597    993.20977    1996.3258    397.86751 
 1160000    284.64068    998.96321   -92.167058    1091.1303    1004.5764    2003.5396    400.51329 
 1161000    271.34454    997.45681   -77.338202     1074.795     957.6506    1955.1074    397.76859 
 1162000    276.58699    1015.2648   -84.981819    1100.2466    976.15269    1991.4175    396.56802 
 1163000    273.57466    1009.6709   -75.054159     1084.725    965.52134    1975.1922    407.37376 
 1164000    283.04029    1049.3172   -65.498402    1114.8156    998.92818    2048.2454    405.33522 
 1165000    278.54488    1054.8535   -71.521044    1126.3746    983.06261    2037.9161    408.51641 
 1166000    286.85094    1032.3681   -73.397636    1105.7657     1012.377    2044.7451    398.81672 
 1167000    285.53357    1033.6521    -73.91798    1107.5701    1007.7277    2041.3798    390.50607 
 1168000    286.52568    1055.2315   -66.347526    1121.5791    1011.2291    2066.4606    395.61218 
 1169000    282.80339    1075.9121   -73.417823    1149.3299    998.09209    2074.0042    402.71943 
 1170000    273.59695    1052.9243   -78.478029    1131.4023    965.60001    2018.5243    401.33163 
 1171000    281.01377    1036.2364    -81.04807    1117.2845    991.77604    2028.0124    404.99528 
 1172000    284.29973    998.38295   -81.511256    1079.8942    1003.3731     2001.756    397.67118 
 1173000    269.77457    1021.6178   -96.651512    1118.2693    952.10977    1973.7276    404.32777 
 1174000     286.9549    992.75229   -82.540071    1075.2924    1012.7439    2005.4962    403.27749 
 1175000    276.22275    1065.4136   -94.190241    1159.6038    974.86718    2040.2807    403.62445 
 1176000    277.52621    1010.0376   -81.837465    1091.8751    979.46746    1989.5051    406.18421 
 1177000      280.319    1019.2437   -80.035966    1099.2796      989.324    2008.5677     408.0762 
 1178000    279.46323    1041.3733   -70.933952    1112.3073    986.30375    2027.6771    409.89509 
 1179000    305.15348    997.94997   -79.732332    1077.6823    1076.9718    2074.9217    407.89222 
 1180000    290.62198    1048.9121   -86.678671    1135.5907    1025.6861    2074.5981    411.65271 
 1181000     293.1453    1081.4353   -76.577919    1158.0132    1034.5916    2116.0269    408.69925 
 1182000     283.1084    1063.6943   -87.539445    1151.2337    999.16857    2062.8629    397.50055 
 1183000    285.35616    1070.1924   -75.768906    1145.9613    1007.1015    2077.2939    396.70226 
 1184000    280.73363    1063.5178   -79.079063    1142.5968    990.78732    2054.3051    397.07043 
 1185000    273.34864    1057.6795   -84.406475     1142.086    964.72363    2022.4031    406.54464 
 1186000    273.19364      1019.82   -83.265405    1103.0854     964.1766    1983.9966    406.71464 
 1187000    278.73472    1046.2587   -74.078285     1120.337    983.73263    2029.9914    403.88875 
 1188000    284.62567    1020.8064   -77.802413    1098.6088    1004.5234    2025.3298     399.4616 
 1189000    272.90302    1040.4966    -79.99392    1120.4905    963.15093    2003.6475    402.28687 
 1190000    276.51132    991.98174   -96.189635    1088.1714    975.88561    1967.8673    391.25282 
 1191000    265.72636    1019.7318   -86.310023    1106.0418    937.82248    1957.5543    392.65292 
 1192000     281.0898    1015.7244   -66.939592     1082.664    992.04436    2007.7688    383.27247 
 1193000    282.54586    1034.5872   -67.973162    1102.5604    997.18319    2031.7704    392.71996 
 1194000    277.10374    1088.5416   -86.872677    1175.4143    977.97643     2066.518    395.29764 
 1195000    285.72925    1100.6518   -82.286922    1182.9387    1008.4183      2109.07    394.13189 
 1196000    289.65713     1033.682   -80.449083     1114.131    1022.2809    2055.9628    397.13005 
 1197000    279.31329      1048.21   -78.529259    1126.7393    985.77457    2033.9846    398.65905 
 1198000     282.2696    1049.0007    -81.40428     1130.405     996.2082    2045.2089    392.35195 
 1199000    291.32535    1021.7136   -92.616056    1114.3297    1028.1685    2049.8821     398.4113 
 1200000    274.61334    1048.6801    -89.08447    1137.7646     969.1871    2017.8672    392.06678 
 1201000    274.45102    1027.3365   -80.533415    1107.8699    968.61426    1995.9508    392.92645 
 1202000    269.01059    1008.9922   -87.450414    1096.4426    949.41344    1958.4056    400.24965 
 1203000    272.73396     1022.863   -81.448931    1104.3119    962.55428    1985.4172    397.87935 
 1204000    277.21019    1006.0056   -82.687763    1088.6933    978.35215    1984.3577    397.59905 
 1205000    285.95527    1007.8753   -77.359549    1085.2349     1009.216    2017.0913    394.77216 
 1206000    277.05154    1044.9673    -89.57396    1134.5412     977.7922    2022.7595    393.66768 
 1207000    280.95012    1016.5325   -100.27742    1116.8099     991.5514    2008.0839    404.81998 
 1208000     283.6766    1066.7999    -79.10101    1145.9009    1001.1739    2067.9738    410.41835 
 1209000    282.45984    1029.4008   -87.316214     1116.717    996.87962    2026.2804    411.98704 
 1210000     285.7026    1016.3896   -85.359978    1101.7496    1008.3242    2024.7139    403.57727 
 1211000    288.33569    1018.1018   -85.619331    1103.7212    1017.6171     2035.719    406.23145 
 1212000    287.31713    1032.0449    -78.02669    1110.0716    1014.0224    2046.0673     401.4839 
 1213000    294.07009    1076.5254    -82.11591    1158.6413    1037.8554    2114.3808    397.49744 
 1214000    277.51152    1050.2167   -82.058854    1132.2755    979.41559    2029.6322    403.73868 
 1215000    285.79828     1065.295   -77.382873    1142.6778    1008.6619    2073.9569    401.30475 
 1216000    286.58444    1067.9049   -83.780428    1151.6853    1011.4365    2079.3413    402.50578 
 1217000    284.58777    1047.1335   -86.255692    1133.3892    1004.3897    2051.5232    396.36568 
 1218000    289.87486    1080.5923   -72.017535    1152.6098    1023.0493    2103.6415    392.02447 
 1219000    295.81297    1036.4352   -90.539699    1126.9749    1044.0065    2080.4417    389.10743 
 1220000    297.56029    1037.4979   -86.676315    1124.1742    1050.1733    2087.6712    397.90604 
 1221000    292.51034    1018.7812   -85.987791     1104.769    1032.3506    2051.1319    392.89856 
 1222000     290.3014    1001.0264   -86.594771    1087.6211    1024.5547     2025.581    396.85148 
 1223000    277.94869    997.75176   -82.228743    1079.9805    980.95851    1978.7103     393.0288 
 1224000    279.60903    1012.8021   -92.208125    1105.0102    986.81831    1999.6204    386.40601 
 1225000    281.80281    1035.2753   -76.090105    1111.3654    994.56076    2029.8361    395.93772 
 1226000    280.79888    1052.9795   -85.390713    1138.3702     991.0176    2043.9971    396.46642 
 1227000    279.46502     1093.359   -70.516282    1163.8753    986.31004     2079.669    394.66651 
 1228000    297.97348    1040.3159   -68.554595    1108.8705    1051.6316    2091.9475    396.66911 
 1229000    288.54653     1032.599   -88.919909    1121.5189    1018.3612    2050.9603    389.31886 
 1230000    285.90719    1073.4535   -79.163537     1152.617    1009.0463    2082.4998      386.322 
 1231000    293.77007    1024.7504   -78.490403    1103.2408    1036.7966    2061.5469    394.85153 
 1232000    275.37529    1073.5521   -57.620797    1131.1729    971.87626    2045.4284    399.11195 
 1233000    283.76132    1071.2183   -67.780794    1138.9991    1001.4729    2072.6912    405.74345 
 1234000    288.59592    1049.6901   -61.239063    1110.9292    1018.5355    2068.2257    402.98615 
 1235000    288.39694    1060.3462   -63.320972    1123.6672    1017.8333    2078.1795     412.9507 
 1236000    294.04434    1035.7015   -88.966979    1124.6685    1037.7645    2073.4661    410.87444 
 1237000    282.50956    1095.3247   -75.669248    1170.9939    997.05508    2092.3798    398.12529 
 1238000      275.433     1058.718   -98.241707    1156.9597    972.07992    2030.7979    385.84793 
 1239000    282.67258    996.38834   -96.545641     1092.934    997.63043    1994.0188    399.00683 
 1240000    281.10247    1038.8352    -72.56741    1111.4026    992.08907    2030.9243    404.30519 
 1241000    281.28283    1028.5447   -75.287299     1103.832    992.72563    2021.2703    398.28431 
 1242000    282.54828     1067.557   -90.025051     1157.582    997.19174    2064.7487    385.50306 
 1243000    281.33353    1051.5992   -68.886752    1120.4859    992.90453    2044.5037    398.24772 
 1244000    275.51777    1045.6324   -75.665953    1121.2983    972.37912    2018.0115    404.44344 
 1245000     270.3346    1042.3837   -86.418785    1128.8025    954.08625      1996.47    404.54119 
 1246000    283.81706    1028.3691   -69.170776    1097.5399    1001.6696    2030.0387    400.43586 
 1247000    293.50794    1000.8648   -79.598564    1080.4634    1035.8714    2036.7363    402.28413 
 1248000    284.06304    1041.8153   -95.884125    1137.6994    1002.5377     2044.353    403.32069 
 1249000    280.54439    1054.8037   -78.466853    1133.2706    990.11945    2044.9232    401.52754 
 1250000    285.47259    1012.1806   -81.431387     1093.612    1007.5125    2019.6931    396.41795 
 1251000    290.90727    1040.3188   -76.423177     1116.742     1026.693    2067.0118    401.84656 
 1252000    282.85152    1069.5784   -63.852289    1133.4307    998.26195    2067.8404    404.48759 
 1253000    281.09405    1069.0811    -78.79725    1147.8783    992.05937    2061.1404    396.21567 
 1254000    272.83166    1047.4826   -89.442746    1136.9253    962.89907    2010.3817    403.58807 
 1255000     282.7271    993.04034   -105.43939    1098.4797    997.82284    1990.8632    390.97207 
 1256000    283.52015    1003.2129   -86.420089     1089.633    1000.6218    2003.8346    395.83203 
 1257000    275.83729    1022.7567   -81.959115    1104.7159    973.50677    1996.2635    393.84523 
 1258000    277.59155    1035.4105   -74.733878    1110.1444    979.69805    2015.1085    396.46627 
 1259000    280.62068    1022.4607   -91.118273     1113.579     990.3887    2012.8494    394.56791 
 1260000    281.37062    1033.9799   -83.625335    1117.6053    993.03546    2027.0154    398.83903 
 1261000     285.0808    1036.6488   -77.157864    1113.8066    1006.1297    2042.7784    390.28693 
 1262000    285.44113    1039.4017   -75.140358     1114.542    1007.4014    2046.8031    397.75987 
 1263000    277.09278    1023.5185   -84.961847    1108.4803    977.93776    2001.4562    402.52437 
 1264000    288.22633     1047.001   -84.735571    1131.7366    1017.2312    2064.2322    406.02733 
 1265000    288.45196    1057.1688   -56.864441    1114.0332    1018.0275    2075.1962    406.01756 
 1266000    283.73472    1033.8289   -79.507347    1113.3362     1001.379    2035.2079    406.30083 
 1267000    278.75261     1003.482   -83.440228    1086.9222    983.79575    1987.2778    405.22059 
 1268000    279.82163    986.40147   -89.924444    1076.3259    987.56865    1973.9701    399.91514 
 1269000    280.36251    995.35457   -92.996605    1088.3512    989.47754    1984.8321    397.34157 
 1270000    285.50751    1006.5381   -79.541885      1086.08    1007.6357    2014.1738    388.64402 
 1271000    296.47706    1012.1449   -88.633244    1100.7782    1046.3503    2058.4952    387.88719 
 1272000     279.7119    1057.9287    -69.88309    1127.8118    987.18135      2045.11    390.26793 
 1273000    270.64225    1078.6684   -67.676492    1146.3448    955.17203    2033.8404    395.60828 
 1274000    294.27879    1016.4849   -82.586621    1099.0715     1038.592    2055.0769    387.57521 
 1275000    283.84673    1053.6926   -76.588295    1130.2809    1001.7743     2055.467    388.21471 
 1276000    279.17795    1051.9132   -80.516354    1132.4295    985.29691    2037.2101    391.93497 
 1277000    281.09452    1063.3793   -81.641876    1145.0212      992.061    2055.4403    397.52831 
 1278000    280.16598    1030.8408   -78.372207     1109.213    988.78394    2019.6248    396.09388 
 1279000    284.36527    1015.0552   -80.934314    1095.9896    1003.6044    2018.6597    394.70399 
 1280000    277.15309    1112.9323   -83.991431    1196.9237    978.15061    2091.0829    398.00041 
 1281000    283.34371    1039.9219   -67.585757    1107.5077    999.99903    2039.9209    398.46528 
 1282000     297.7755    1036.0589   -94.253524    1130.3124    1050.9329    2086.9917    393.00166 
 1283000    282.78752    1045.5722    -75.80142    1121.3736    998.03608    2043.6082    382.03874 
 1284000    278.90968    1053.8743   -76.690543    1130.5649     984.3501    2038.2244    372.91546 
 1285000    287.47119     1024.218   -91.681239    1115.8992    1014.5661    2038.7841    366.41558 
 1286000    277.57067    1051.8146   -94.238396     1146.053    979.62436     2031.439    373.13208 
 1287000    284.39073    1034.3977   -95.628621    1130.0263    1003.6943    2038.0919     370.4125 
 1288000    281.01196    1042.6921   -88.422225    1131.1143    991.76962    2034.4617    373.91329 
 1289000    290.90238    1023.0661   -92.124079    1115.1902    1026.6757    2049.7418    383.05914 
 1290000    279.82115    1065.4978   -74.369933    1139.8678    987.56693    2053.0648    375.92707 
 1291000    280.18058     1035.027   -86.883782    1121.9108    988.83546    2023.8625    383.04637 
 1292000    284.62624    1024.9151   -86.446143    1111.3613    1004.5254    2029.4405    378.21209 
 1293000    285.83639    1052.2733   -76.057581    1128.3309    1008.7964    2061.0697    385.71213 
 1294000    279.99848    1073.0829   -61.435469    1134.5184    988.19279    2061.2757    394.43067 
 1295000    284.47971    1015.3725   -87.629959    1103.0024    1004.0083    2019.3808      391.442 
 1296000    283.36683    1051.6909   -76.708918    1128.3998    1000.0806    2051.7715     394.2974 
 1297000    288.98363     1030.645   -72.780734    1103.4258    1019.9039    2050.5489    392.39017 
 1298000    289.52158    1070.8481   -81.316026    1152.1642    1021.8025    2092.6506    392.48149 
 1299000    280.02374     1047.849    -77.73647    1125.5855    988.28193    2036.1309    394.98907 
 1300000    282.44497    1002.5706   -92.938078    1095.5087    996.82711    1999.3978    390.73476 
 1301000    280.50033    1061.8668   -92.978259    1154.8451    989.96393    2051.8308      390.025 
 1302000     277.0934    1060.1863   -86.325971    1146.5123    977.93995    2038.1262    389.32851 
 1303000    292.01775    1019.8619   -69.992601    1089.8545    1030.6122    2050.4741    395.89735 
 1304000    279.62551    1035.5362   -71.725162    1107.2614    986.87648    2022.4127    397.69498 
 1305000    278.97678    1042.6421   -83.130157    1125.7722    984.58693     2027.229    389.66587 
 1306000     276.0525    1034.1819   -92.626354    1126.8082    974.26631    2008.4482    379.79257 
 1307000    280.98941    1040.8131   -76.320413    1117.1335    991.69006    2032.5032    389.66508 
 1308000    281.51062    1034.3277    -86.76839    1121.0961    993.52954    2027.8573    395.85505 
 1309000    279.61245    1029.4254   -97.807619     1127.233    986.83036    2016.2557    414.90261 
 1310000    276.80048    1073.7808   -84.281411    1158.0623    976.90614     2050.687    402.72613 
 1311000    285.97113    1054.0042   -82.605784      1136.61    1009.2719    2063.2762    399.81504 
 1312000    282.55842    1087.0239   -68.190519    1155.2144    997.22751    2084.2514    404.68541 
 1313000    282.99023    1029.6411   -80.746526    1110.3876    998.75152    2028.3926    400.11917 
 1314000    275.92156     1050.247   -79.298498    1129.5455    973.80421    2024.0512    397.82719 
 1315000    267.63714     1043.587   -84.448683    1128.0356    944.56616    1988.1531    396.60876 
 1316000    280.61118    1022.0614   -95.568524    1117.6299    990.35519    2012.4166    395.63828 
 1317000    291.19711    997.45494    -77.90062    1075.3556    1027.7159    2025.1708    397.46878 
 1318000    278.87434    1076.0393   -92.578053    1168.6173    984.22539    2060.2647    402.80611 
 1319000    277.26417    1051.2396   -88.233843    1139.4735    978.54263    2029.7823     397.9992 
 1320000     286.8178    1065.6554   -73.535128    1139.1905    1012.2601    2077.9155    399.37983 
 1321000    289.18958    1041.7876   -84.631566    1126.4192    1020.6308    2062.4183    394.28308 
 1322000     291.6518    1061.3046   -64.270191    1125.5748    1029.3206    2090.6252    380.92966 
 1323000    292.02986    1051.8462   -84.037508    1135.8837    1030.6549    2082.5011    379.62436 
 1324000    272.72295    1020.1633   -75.525018    1095.6883    962.51541    1982.6787    398.19099 
 1325000    277.16456    996.16198   -86.436533    1082.5985    978.19108    1974.3531    399.67719 
 1326000    277.99967    1046.0577   -69.250554    1115.3082    981.13841    2027.1961    402.69889 
 1327000    272.20849    1095.5977   -70.944613    1166.5423    960.69972    2056.2974    404.06142 
 1328000    291.14874    1068.7933   -80.485306    1149.2786    1027.5452    2096.3385    400.74668 
 1329000    302.91396     1070.919   -94.479236    1165.3983    1069.0679     2139.987    387.71865 
 1330000    284.31758    1076.8032   -72.780403    1149.5836    1003.4361    2080.2393     390.5897 
 1331000    285.25434    1061.4374   -89.128093    1150.5655    1006.7422    2068.1796    392.64812 
 1332000    281.48036    1055.3841   -96.984133    1152.3682    993.42275    2048.8068    396.03185 
 1333000    273.64431     1052.421   -71.129083    1123.5501    965.76715    2018.1882    397.60996 
 1334000    283.00298    1012.3968     -87.8924    1100.2892    998.79652    2011.1934     390.6002 
 1335000    280.27217    1009.4325   -96.001158    1105.4336    989.15872    1998.5912    389.84365 
 1336000    262.41407    1009.9153   -80.788902    1090.7042    926.13248    1936.0478     387.1962 
 1337000    275.82689    996.84289   -91.252674    1088.0956    973.47006     1970.313    391.00192 
 1338000    276.15348    989.85422    -95.27111    1085.1253     974.6227    1964.4769     393.8281 
 1339000    269.96121    1016.3596   -86.982658    1103.3422    952.76846     1969.128    390.14859 
 1340000    272.83195    1021.3606   -91.661937    1113.0225     962.9001    1984.2607    384.30888 
 1341000    275.42087    1028.8506   -88.397744    1117.2483    972.03713    2000.8877    393.07009 
 1342000    285.32813    1039.0606   -86.993402     1126.054    1007.0026    2046.0632    388.85227 
 1343000    278.49935    1060.3607   -76.104127    1136.4648    982.90193    2043.2626    399.37741 
 1344000    281.55139    1061.7498   -77.645649    1139.3955    993.67344    2055.4233    390.00332 
 1345000    282.31199    1019.5704   -77.478313    1097.0487     996.3578    2015.9282    383.54135 
 1346000    285.24314    1020.7313    -78.31046    1099.0418    1006.7027     2027.434    385.36913 
 1347000    289.71182    1095.4457   -64.194325    1159.6401    1022.4739    2117.9196    390.90377 
 1348000    287.82888    1066.1684   -81.553255    1147.7216    1015.8285    2081.9968    392.84782 
 1349000    281.53937     1013.935   -66.671616    1080.6066      993.631     2007.566    394.28706 
 1350000    283.00256    1013.9801     -75.4691    1089.4492    998.79504    2012.7751    389.92594 
 1351000    283.89305    1040.6544    -74.19159     1114.846    1001.9378    2042.5922    397.75739 
 1352000    279.07175    1010.8873    -76.45238    1087.3397    984.92211    1995.8094    397.31167 
 1353000    271.16014    1035.0535   -74.594009    1109.6476    956.99981    1992.0533     401.2035 
 1354000    276.08851    994.77307   -83.414226    1078.1873     974.3934    1969.1665    397.68483 
 1355000    272.93769    1026.7291    -71.71369    1098.4428    963.27327    1990.0024    396.30478 
 1356000    274.15568    1032.3687   -70.472736    1102.8414    967.57191    1999.9406    410.04907 
 1357000    270.82208    1007.7851   -82.765331    1090.5504    955.80672    1963.5918    388.00002 
 1358000    278.21832    1030.4807   -87.889275      1118.37     981.9101    2012.3908    392.76949 
 1359000    279.49453    1025.6895   -79.113211    1104.8027    986.41421    2012.1037    391.61507 
 1360000    283.70478    1038.3241   -70.737386    1109.0615    1001.2733    2039.5975    386.97562 
 1361000     284.3178    1051.9095   -78.639814    1130.5493    1003.4369    2055.3464    405.80765 
 1362000     274.8324    1022.1771   -86.320802    1108.4979    969.96023    1992.1374    400.19186 
 1363000    280.19125    1035.4985   -84.978993    1120.4775    988.87314    2024.3716    400.93603 
 1364000    279.54382    1042.3909   -73.005828    1115.3968    986.58815    2028.9791    396.43433 
 1365000    276.39042    1019.3275   -86.164549     1105.492    975.45893    1994.7864    397.53241 
 1366000    288.82495     1043.774   -85.318276    1129.0923    1019.3439    2063.1179    391.28561 
 1367000    274.72874    1006.3516   -85.803087    1092.1547    969.59441     1975.946    386.55915 
 1368000    274.17843    1005.4954   -74.979865    1080.4752    967.65221    1973.1476    384.27402 
 1369000    275.92794    1022.7332   -96.618702    1119.3519     973.8267    1996.5599    399.56253 
 1370000    285.50195    1037.0831   -86.286943    1123.3701    1007.6161    2044.6992    390.05867 
 1371000    282.12833    1017.5739   -90.449618    1108.0235    995.70962    2013.2835    386.80633 
 1372000    285.75654      1004.05   -92.417274    1096.4673    1008.5146    2012.5646    388.97379 
 1373000     279.7053    998.07546   -90.602078    1088.6775    987.15806    1985.2335    388.93012 
 1374000    273.55563     1033.402   -80.841607    1114.2436    965.45416    1998.8562    384.91474 
 1375000     272.6411     1038.743   -80.860217    1119.6032    962.22654    2000.9695    388.80583 
 1376000    292.93829    1001.7283   -77.637338    1079.3656     1033.861    2035.5893    387.53335 
 1377000    286.03453    1053.3857   -100.01224     1153.398    1009.4957    2062.8814    382.21077 
 1378000    284.72465    1068.4928   -90.944722    1159.4376    1004.8728    2073.3656    377.33181 
 1379000    275.42197    1059.7537   -86.958479    1146.7122    972.04102    2031.7947    373.34207 
 1380000    291.13002    1018.1027   -96.077145    1114.1799    1027.4791    2045.5818    378.57823 
 1381000    286.23561    1049.5519   -88.295412    1137.8473    1010.2054    2059.7573    374.62703 
 1382000     287.6729    1069.7654   -87.065456    1156.8309    1015.2779    2085.0433     365.3953 
 1383000    287.61557    1069.6336   -81.417469     1151.051    1015.0756    2084.7092    384.16429 
 1384000    292.30846    971.22211   -95.536066    1066.7582    1031.6381    2002.8603    389.25506 
 1385000    287.52499    1022.7681   -98.498985    1121.2671    1014.7559     2037.524    386.31685 
 1386000    288.53086    1019.9827   -83.808294     1103.791    1018.3059    2038.2886     386.7169 
 1387000    272.09701    1028.1425   -79.570423    1107.7129    960.30629    1988.4488    387.61586 
 1388000    275.53693     1046.347   -67.682395    1114.0294    972.44672    2018.7937    395.73826 
 1389000    280.83309    990.17098   -98.539904    1088.7109    991.13834    1981.3093    392.06707 
 1390000    279.02945    1023.4583   -92.394029    1115.8523    984.77281    2008.2311    399.73716 
 1391000    283.36698    1048.2853   -81.454446    1129.7397    1000.0812    2048.3664    388.62645 
 1392000    286.12827    1040.4881   -71.189746    1111.6779    1009.8265    2050.3147    391.00853 
 1393000    282.61272    1057.7859    -84.21401    1141.9999    997.41915     2055.205    387.75197 
 1394000    285.35646    1027.2701   -93.438517    1120.7086    1007.1026    2034.3727    399.53707 
 1395000    277.66978    1033.4963   -82.700577    1116.1969    979.97414    2013.4705    381.39146 
 1396000    270.03478    1044.7257   -92.849796    1137.5755     953.0281    1997.7538    390.85165 
 1397000    275.71582    1045.1485   -96.263705    1141.4122     973.0781    2018.2266    389.42713 
 1398000    283.88062    1070.9417   -80.453613    1151.3953    1001.8939    2072.8356    386.58088 
 1399000    288.48181    1015.1747   -93.119922    1108.2946    1018.1328    2033.3075    393.01999 
 1400000    270.01195     1031.182   -87.411838    1118.5938    952.94753    1984.1295    382.61059 
 1401000    269.76483    997.84069   -77.060976    1074.9017    952.07536    1949.9161    395.58412 
 1402000     279.0954     990.9958   -81.382979    1072.3788    985.00557    1976.0014    392.36664 
 1403000    288.04984    1001.4675   -71.463216    1072.9307    1016.6083    2018.0757    396.50117 
 1404000    286.38729    1033.9769   -90.265334    1124.2422    1010.7407    2044.7176    390.41737 
 1405000    281.42358    1068.9788   -97.947649    1166.9265    993.22236    2062.2012    390.49525 
 1406000    289.29091    1037.1919   -79.781647    1116.9736    1020.9884    2058.1803    391.42094 
 1407000    282.04953    1070.6525    -72.22656     1142.879    995.43151     2066.084    382.78965 
 1408000     278.0235    1033.8819   -87.988548    1121.8704    981.22253    2015.1044    389.74247 
 1409000    285.29684    1066.5057    -70.87146    1137.3772    1006.8922    2073.3979    389.93188 
 1410000    269.81022    1064.6329   -95.625265    1160.2582    952.23556    2016.8684    387.92558 
 1411000    270.90202    1048.3231   -100.22706    1148.5501    956.08883    2004.4119    384.91676 
 1412000    282.45484    1048.6561   -79.487796    1128.1439    996.86196    2045.5181    390.30715 
 1413000    283.34014     1075.662    -74.24484    1149.9068    999.98644    2075.6484     390.3944 
 1414000    273.56446    1039.6899   -99.034672    1138.7245    965.48534    2005.1752    393.09829 
 1415000    273.54713    1024.9561    -96.81202    1121.7681    965.42416    1990.3802    386.61403 
 1416000    279.57128    1040.1601   -87.044454    1127.2045    986.68509    2026.8452    387.44129 
 1417000    280.73651    1034.4622   -73.453938    1107.9162    990.79749    2025.2597    385.09651 
 1418000    282.86876    1027.0818     -93.8445    1120.9263    998.32281    2025.4046    388.68077 
 1419000    287.40009    1012.9083   -101.02808    1113.9363    1014.3151    2027.2234    393.17108 
 1420000    267.77591    1057.3691    -79.07571    1136.4448    945.05594    2002.4251    392.31014 
 1421000    277.38554    1053.3582   -66.201789      1119.56    978.97098    2032.3292    392.99319 
 1422000    273.01242    1087.7774   -70.967836    1158.7452    963.53704    2051.3144    384.75191 
 1423000    290.20144    1024.1435   -88.862036    1113.0055    1024.2019    2048.3453    382.54838 
 1424000    272.39665    1050.8623   -90.367278    1141.2296    961.36379    2012.2261    385.21514 
 1425000     281.7414    1057.7743   -77.550474    1135.3248    994.34404    2052.1183    397.43754 
 1426000    283.50207    1055.7417   -86.208286      1141.95    1000.5579    2056.2997    393.36014 
 1427000    285.92287    1109.4579   -60.108847    1169.5668    1009.1016    2118.5595    400.63791 
 1428000      294.054    1046.1734   -77.955928    1124.1294    1037.7986    2083.9721    401.90619 
 1429000    282.99553    1061.0156   -69.444784    1130.4603    998.77021    2059.7858    402.97204 
 1430000     286.3046    1044.5428   -67.379303    1111.9221    1010.4488    2054.9917    396.75492 
 1431000    293.67864    1023.6008   -74.641671    1098.2425    1036.4739    2060.0747    398.28629 
 1432000    281.19606    1058.3502   -72.036507    1130.3867    992.41938    2050.7696    399.19921 
 1433000    284.37602    1027.3889   -83.230249    1110.6192    1003.6424    2031.0313    398.26329 
 1434000    280.77288    1044.5453   -81.116643    1125.6619    990.92586    2035.4711    398.14578 
 1435000    287.46277     1068.539   -90.472773    1159.0117    1014.5363    2083.0753    395.44076 
 1436000    280.44636    1068.9378   -78.323241     1147.261    989.77348    2058.7112    396.35299 
 1437000     287.7918    1050.3745   -85.359411     1135.734    1015.6976    2066.0721    386.81864 
 1438000    273.76151    1095.3681   -74.427164    1169.7953    966.18078    2061.5489    382.48335 
 1439000    283.28361    1047.0498   -84.635143    1131.6849    999.78693    2046.8367    393.29118 
 1440000    280.53947     1076.358    -86.32452    1162.6825    990.10208    2066.4601    390.23182 
 1441000    292.63396    976.16743    -89.83496    1066.0024    1032.7869    2008.9544    394.78123 
 1442000    277.39971    1046.7144   -85.804572     1132.519    979.02099    2025.7354    394.70613 
 1443000    274.82492    1002.5777   -97.075452    1099.6532    969.93385    1972.5116    385.72431 
 1444000    269.68895    966.69181   -93.812734    1060.5045    951.80759    1918.4994    387.94266 
 1445000    275.46828    970.40034     -90.8573    1061.2576    972.20443    1942.6048    386.66105 
 1446000    271.28066    1021.8776   -103.86708    1125.7447    957.42517    1979.3028    390.88343 
 1447000    274.29364    996.99097   -73.699731    1070.6907     968.0588    1965.0498    386.78529 
 1448000     271.0118    1015.0247   -92.101251     1107.126    956.47628     1971.501    397.70509 
 1449000    276.88021    1043.5174   -79.191085    1122.7085    977.18753    2020.7049    392.41964 
 1450000    288.05376    1018.8829    -80.58394    1099.4668    1016.6221     2035.505    395.36773 
 1451000    282.03307     1027.281    -69.12191    1096.4029    995.37342    2022.6545    402.52313 
 1452000     285.7783    1022.0129   -97.182444    1119.1953    1008.5914    2030.6043    384.83923 
 1453000     284.7632    1031.9796   -86.685206    1118.6648    1005.0088    2036.9884    380.73949 
 1454000    271.09587    1046.9248    -81.50122     1128.426    956.77299    2003.6977    385.55162 
 1455000      279.518     1087.736   -71.000893    1158.7368    986.49703     2074.233    371.70707 
 1456000    289.00315    1041.6164   -81.531143    1123.1475    1019.9728    2061.5891    368.73795 
 1457000    271.65656    1058.9756   -74.290953    1133.2666    958.75181    2017.7275    381.46741 
 1458000    280.66826    1033.9749   -79.725215    1113.7001    990.55664    2024.5315    372.87385 
 1459000    273.94457    1038.7818   -79.038425    1117.8202    966.82686    2005.6087    393.29327 
 1460000    292.93981    1015.2582   -74.115141    1089.3733    1033.8664    2049.1246    393.70084 
 1461000    289.85218    1074.2801   -75.022087    1149.3022    1022.9692    2097.2494    384.14141 
 1462000    281.63348    1037.9882   -73.776638    1111.7648    993.96314    2031.9513    380.91578 
 1463000    275.15277    1045.3166   -81.941049    1127.2577    971.09092    2016.4075    383.29036 
 1464000    282.28029    1031.6995   -91.890965    1123.5905    996.24594    2027.9455    382.11916 
 1465000    281.31309    1019.2595   -85.273898    1104.5334    992.83242    2012.0919    363.12167 
 1466000    274.97728    1028.6285    -75.34695    1103.9754    970.47158       1999.1    369.87073 
 1467000    270.73156    1038.6088   -98.151563    1136.7604    955.48722    1994.0961    385.85412 
 1468000    271.69672    1020.1601   -84.145737    1104.3058    958.89354    1979.0536    383.69164 
 1469000    267.81895    1012.0916   -80.190973    1092.2825    945.20784    1957.2994    368.67023 
 1470000    279.50471    1021.7223   -71.287831    1093.0101    986.45014    2008.1724     366.7111 
 1471000    281.18477    1020.5512   -90.897698    1111.4489    992.37955    2012.9307    379.48791 
 1472000     289.7595    1033.5812    -83.44367    1117.0249    1022.6421    2056.2233    392.77055 
 1473000    282.08452    1022.1053     -73.7569    1095.8622    995.55502    2017.6603     395.3713 
 1474000    273.86688    1066.2599   -76.734779    1142.9947    966.55267    2032.8126    385.39011 
 1475000    284.15376    1034.3095   -63.397135    1097.7067    1002.8579    2037.1674    375.67267 
 1476000    285.93547    1032.8896   -73.544098    1106.4337    1009.1461    2042.0356     374.3594 
 1477000    285.46349    1029.8237   -74.007085    1103.8308    1007.4803     2037.304    386.72973 
 1478000    280.02443    1051.8815    -71.54106    1123.4225    988.28436    2040.1658    373.84764 
 1479000     276.7402    1044.2575   -85.622948    1129.8805    976.69339    2020.9509    382.85875 
 1480000    283.46455     1044.982   -80.343767    1125.3258    1000.4255    2045.4075    389.14765 
 1481000    275.56357    1059.0035    -69.44884    1128.4523    972.54074    2031.5442    396.46698 
 1482000    280.93057    1058.3977   -84.004622    1142.4023    991.48239      2049.88    391.91801 
 1483000    279.26239    1037.4327   -84.690533    1122.1232    985.59493    2023.0276    380.89252 
 1484000    279.93256    1031.5111   -82.900894     1114.412    987.96013    2019.4712    358.14311 
 1485000    279.26744    1052.1399   -91.156986    1143.2969    985.61274    2037.7527    353.48599 
 1486000    278.05822    1014.7418   -83.241793    1097.9836    981.34507    1996.0869    367.17768 
 1487000    279.39208    1053.4365   -75.068484     1128.505    986.05263    2039.4891    374.64197 
 1488000    273.37942    1039.7987    -75.65083    1115.4495    964.83227    2004.6309    378.29523 
 1489000    267.74702     1017.474   -86.041691    1103.5156    944.95397    1962.4279    388.14993 
 1490000    270.85398    1021.3939   -83.820612    1105.2145     955.9193    1977.3132     387.8846 
 1491000    276.19392    1050.9634   -70.984086    1121.9475    974.76542    2025.7288    394.58195 
 1492000    272.38162    1028.5061   -93.894222    1122.4003    961.31078    1989.8168    393.38057 
 1493000    273.89779    994.66428   -90.375205    1085.0395    966.66174     1961.326    388.95893 
 1494000     273.6702    1020.2072   -69.584561    1089.7917    965.85851    1986.0657    374.07191 
 1495000     277.0937    1045.1156   -81.258264    1126.3739    977.94101    2023.0567    385.06023 
 1496000      289.925    992.57381   -84.952156     1077.526    1023.2263    2015.8001     394.8433 
 1497000    283.72165     999.9075    -95.77635    1095.6838    1001.3329    2001.2404    392.54645 
 1498000    285.40279    1040.7368   -79.789288    1120.5261    1007.2661    2048.0029    384.98418 
 1499000    279.22122    1020.8761   -89.243353    1110.1194    985.44962    2006.3257    385.99342 
 1500000    285.37689    1042.9857   -79.065734    1122.0514    1007.1747    2050.1604    379.47062 
 1501000    280.32751    1064.0849   -77.445062    1141.5299    989.35402    2053.4389    374.88416 
 1502000    289.31272    1091.1467   -79.924303     1171.071    1021.0653    2112.2121    379.46513 
 1503000     284.2252    1049.6548    -86.93669    1136.5915    1003.1101    2052.7649    364.22916 
 1504000    284.77409    1045.0637   -65.842502    1110.9062    1005.0472    2050.1109    376.73268 
 1505000    270.17596    1051.6053   -82.796857    1134.4021    953.52638    2005.1317    360.14647 
 1506000    273.65843    1013.0666   -74.007055    1087.0736    965.81697    1978.8836    380.30933 
 1507000    281.69077     981.0963   -90.694823    1071.7911    994.16534    1975.2616    391.45728 
 1508000    285.53369    1027.0561   -68.841135    1095.8972    1007.7281    2034.7842    385.44859 
 1509000    286.19495    1040.5226   -75.285045    1115.8076    1010.0619    2050.5844    391.68254 
 1510000    272.62689    1082.7533   -84.405989    1167.1593    962.17637    2044.9297    385.99557 
 1511000    277.66617    1039.5093   -86.368043    1125.8774     979.9614    2019.4707    385.43227 
 1512000    282.61359     1035.799   -83.875316    1119.6743    997.42225    2033.2213    381.68639 
 1513000    270.99713    1051.2339   -72.936527    1124.1704    956.42452    2007.6584    367.56788 
 1514000    279.12773    1026.7797   -79.361592    1106.1413    985.11966    2011.8993    377.54556 
 1515000    273.16608    1028.6669    -79.59884    1108.2657    964.07934    1992.7462    383.93568 
 1516000    267.62129    1006.4356   -75.211255    1081.6469    944.51021    1950.9458     390.9139 
 1517000    266.08623    999.39308    -83.58618    1082.9793    939.09256    1938.4856    377.45371 
 1518000    274.80867    1042.4775   -85.516785    1127.9943     969.8765     2012.354    370.65772 
 1519000    275.65206    1050.6999   -76.321272    1127.0212    972.85306     2023.553    373.95173 
 1520000     285.8817    1016.1168   -79.383657    1095.5005    1008.9563    2025.0731    367.65193 
 1521000    277.80503     1058.808   -59.295979     1118.104     980.4515    2039.2595    377.00307 
 1522000    277.77384    1074.4829   -65.889373    1140.3722    980.34141    2054.8243    383.20537 
 1523000    289.18196    1052.6935   -78.141046    1130.8346    1020.6039    2073.2974    380.69323 
 1524000    284.60214    1068.4554   -96.114872    1164.5703    1004.4404    2072.8958     380.4961 
 1525000    286.89375    1063.9232   -63.265698    1127.1889    1012.5281    2076.4513    380.34062 
 1526000    282.31883    1029.4182   -76.464693    1105.8829    996.38193    2025.8002    399.57207 
 1527000    280.63851    1044.6641   -86.197111    1130.8612    990.45164    2035.1157    394.44528 
 1528000    293.16801    1024.8734   -76.521025    1101.3944    1034.6717    2059.5452    395.08719 
 1529000    277.55823    1043.7535   -101.44052     1145.194    979.58045    2023.3339    399.62703 
 1530000    280.48489    1025.3377   -85.165093    1110.5028    989.90947    2015.2472    392.62614 
 1531000    280.88024    1056.0866   -69.662279    1125.7488    991.30478    2047.3913    399.63834 
 1532000    283.94016    1090.1229   -67.741885    1157.8648    1002.1041     2092.227    399.56259 
 1533000    274.30707    1103.7129   -76.381345    1180.0942    968.10623    2071.8191    399.62959 
 1534000    284.71733    1018.6551   -90.772721    1109.4278    1004.8469     2023.502    394.38516 
 1535000    280.79663    1013.0758   -104.91953    1117.9953    991.00969    2004.0855    388.20059 
 1536000    284.10586    1028.6179   -95.907872    1124.5257    1002.6889    2031.3068    377.34207 
 1537000    289.71149    1025.1263   -87.092021    1112.2183    1022.4727     2047.599    383.00099 
 1538000     282.7534    1066.6823   -84.894119    1151.5764    997.91566     2064.598    386.75888 
 1539000    286.72235    1063.1584   -82.161057    1145.3195    1011.9232    2075.0816    387.81958 
 1540000     286.8453    1043.6315   -88.723326    1132.3548    1012.3571    2055.9886    397.76174 
 1541000    277.29337    1087.8234    -72.73878    1160.5622    978.64569    2066.4691    401.82114 
 1542000    273.25928    1063.1778   -77.882588    1141.0604    964.40828    2027.5861    397.85921 
 1543000      276.071    1055.6279   -98.790006    1154.4179    974.33162    2029.9596    398.08191 
 1544000    291.92699    1021.5104   -99.519596      1121.03    1030.2918    2051.8022    389.17763 
 1545000    274.67174    1075.7719   -87.692979    1163.4649    969.39324    2045.1652    397.80809 
 1546000    281.24201    1039.1385   -96.667362    1135.8059    992.58154    2031.7201    380.06209 
 1547000    285.36307    1053.5675   -79.287513     1132.855    1007.1259    2060.6934    385.03936 
 1548000    283.43464    1063.9123   -91.254394    1155.1667    1000.3199    2064.2323    379.37652 
 1549000    286.39248     1075.437   -73.878015     1149.315     1010.759     2086.196    383.52871 
 1550000    285.03597    1064.9938   -79.836738    1144.8306    1005.9715    2070.9653    389.93683 
 1551000    284.91932    1050.2384   -78.453264    1128.6917    1005.5598    2055.7982     386.9362 
 1552000    275.41059    1013.2919   -83.730928    1097.0228    972.00083    1985.2927    383.52447 
 1553000    278.85612    1001.5102   -89.356547    1090.8668    984.16108    1985.6713    390.22232 
 1554000    286.42418    988.99357   -79.258634    1068.2522    1010.8709    1999.8644    380.73631 
 1555000    272.79124    1043.7161   -78.939184    1122.6553    962.75641    2006.4725     391.4419 
 1556000    271.85191    1042.6244   -72.640718    1115.2651    959.44128    2002.0656     376.6689 
 1557000    266.72269    995.34092   -82.073666    1077.4146    941.33883    1936.6797    385.87253 
 1558000    276.54672    984.20707   -88.943247    1073.1503    976.01057    1960.2176    393.57993 
 1559000    272.88419    1019.1425   -89.002305    1108.1448    963.08448     1982.227    394.98097 
 1560000    285.82962    1012.5376    -79.58662    1092.1242    1008.7725    2021.3101    397.22184 
 1561000    274.68634    1049.6475    -80.82314    1130.4706    969.44476    2019.0922    397.93616 
 1562000    286.45474    1005.3507   -90.408003    1095.7587    1010.9787    2016.3294    394.92469 
 1563000    281.99707    1046.9163   -81.713794    1128.6301    995.24636    2042.1627    397.31323 
 1564000    280.97089    1033.9152    -106.6621    1140.5773    991.62468    2025.5398    394.17567 
 1565000    289.56295    1014.6365   -98.361463    1112.9979    1021.9485    2036.5849    396.54363 
 1566000    289.41143    1051.4157   -83.174098    1134.5898    1021.4137    2072.8294    395.17797 
 1567000     287.7991    1056.6595   -84.106018    1140.7655    1015.7233    2072.3828    397.44686 
 1568000    291.27278    1055.3017    -79.98884    1135.2905    1027.9829    2083.2846    394.43915 
 1569000    291.61957    993.84927   -92.363258    1086.2125    1029.2069    2023.0561    389.43213 
 1570000    285.79194    1045.2787   -79.521124    1124.7998    1008.6395    2053.9182    397.48876 
 1571000    289.51665    1013.6972   -87.569056    1101.2663    1021.7851    2035.4823     387.7126 
 1572000    284.16994    985.06908   -82.725804    1067.7949     1002.915    1987.9841    392.08208 
 1573000    274.96154     1028.787   -82.869965     1111.657    970.41603     1999.203    389.66183 
 1574000    295.33706     1023.593   -84.935038     1108.528    1042.3269    2065.9199    400.01932 
 1575000    267.38292    1045.0304   -84.211172    1129.2415    943.66895    1988.6993    394.29808 
 1576000    278.17416    980.45276   -94.503493    1074.9563    981.75426     1962.207    401.55635 
 1577000    277.18486     1030.929   -81.189508    1112.1185    978.26275    2009.1918    399.01546 
 1578000    288.22542    1022.8103   -68.965704     1091.776    1017.2279    2040.0382    402.74184 
 1579000    284.44325    1017.5745   -55.052518     1072.627    1003.8796    2021.4541    408.86986 
 1580000     276.4951    1015.1218   -76.532845    1091.6546    975.82838    1990.9502    411.34429 
 1581000    279.71823    1023.5779   -83.374368    1106.9522     987.2037    2010.7816     390.8821 
 1582000     282.9829    1049.7951    -86.36372    1136.1588    998.72562    2048.5207    393.15921 
 1583000    276.86597    1062.5015    -70.35508    1132.8565    977.13727    2039.6387    390.16105 
 1584000     283.5702    1050.8237   -85.464376    1136.2881    1000.7984    2051.6221     393.3083 
 1585000     284.9694    1074.6796   -70.260206    1144.9398    1005.7365    2080.4161     396.0534 
 1586000    294.09698    1060.4426   -71.262322     1131.705    1037.9503     2098.393    391.70255 
 1587000    278.47365    1065.5781   -68.074539    1133.6526    982.81124    2048.3893    389.11124 
 1588000    281.90661    1072.1404   -64.062209    1136.2026    994.92712    2067.0675    382.27128 
 1589000    278.94145     991.5332   -79.382907    1070.9161    984.46221    1975.9954    386.78303 
 1590000    281.16477     1024.642   -83.374016    1108.0161    992.30894     2016.951    381.84495 
 1591000    283.97924    1037.8923   -85.281917    1123.1742     1002.242    2040.1343    388.58079 
 1592000    283.26234    1015.8058   -74.988815    1090.7946    999.71186    2015.5177    370.43371 
 1593000    278.35936    1040.8384   -79.921348    1120.7597    982.40786    2023.2462    386.40196 
 1594000     276.3997    1013.9885   -73.322477     1087.311     975.4917    1989.4802    392.64505 
 1595000    276.73688    996.31506   -88.621906     1084.937     976.6817    1972.9968    391.44051 
 1596000    273.98491    1002.1698   -80.238376    1082.4082    966.96922     1969.139    397.91714 
 1597000    277.00528    1020.7865   -74.248989    1095.0355    977.62896    1998.4155    392.92124 
 1598000    286.80345     1048.802   -68.967101    1117.7691    1012.2094    2061.0114    392.27186 
 1599000     279.6631    1052.6419   -59.442094     1112.084    987.00913     2039.651    406.94955 
 1600000    289.90112    1018.3008   -91.291872    1109.5926     1023.142    2041.4427    393.39878 
 1601000    279.61179    1044.4421   -74.838546    1119.2807    986.82805    2031.2702    383.75538 
 1602000    274.55937     1049.406   -76.759538    1126.1655    968.99663    2018.4026     391.6349 
 1603000    284.81824    1017.7528   -87.667508    1105.4203    1005.2031    2022.9558    393.50916 
 1604000    280.59587    1036.3337   -74.294986    1110.6287    990.30114    2026.6349    391.97235 
 1605000     277.6273    1069.7443   -74.219068    1143.9634    979.82422    2049.5685     399.9368 
 1606000    285.57414    1033.2319   -94.613118    1127.8451    1007.8708    2041.1028    396.67088 
 1607000    284.82475    1076.5739    -88.79811     1165.372     1005.226       2081.8    393.80316 
 1608000    286.00671     1056.013   -94.498861    1150.5118    1009.3975    2065.4105     394.9773 
 1609000    286.36395    1056.2363   -79.138863    1135.3751    1010.6583    2066.8946     383.3515 
 1610000    270.48023    1033.9392    -94.85124    1128.7905    954.60022    1988.5395    384.39725 
 1611000    266.35995     1040.656   -82.838967     1123.495     940.0586    1980.7146    389.76529 
 1612000    286.85151    991.09214   -81.508835     1072.601     1012.379    2003.4712    386.09838 
 1613000     279.0186    1055.7133   -84.575145    1140.2884    984.73452    2040.4478    386.72388 
 1614000    280.00362    1029.0948   -90.801101    1119.8959    988.21093    2017.3057    388.96744 
 1615000     276.9759     1046.546    -84.07249    1130.6185    977.52525    2024.0712    389.07537 
 1616000    279.42132    988.30186   -80.855141     1069.157    986.15583    1974.4577    391.07779 
 1617000    279.70318    987.24527   -111.39882    1098.6441    987.15058    1974.3959    386.01456 
 1618000    284.02144    1023.3367   -77.484886    1100.8216    1002.3909    2025.7276    382.12959 
 1619000    282.85203    1031.7791   -81.587826    1113.3669    998.26377    2030.0429    385.19805 
 1620000    284.93206    1030.5189    -94.52538    1125.0443    1005.6048    2036.1237    379.41925 
 1621000    274.79979    1027.7185   -73.811043    1101.5296    969.84517    1997.5637     390.8309 
 1622000     281.8846    1036.5273   -75.414372    1111.9416    994.84942    2031.3767    389.95402 
 1623000    279.98442    1051.3741    -88.17169    1139.5458    988.14316    2039.5173    389.70288 
 1624000     289.6103    1018.4522   -87.275706    1105.7279    1022.1156    2040.5678    390.56427 
 1625000    294.04605    1001.5974   -91.666581     1093.264    1037.7706     2039.368    382.55201 
 1626000    292.87922    995.62813   -84.983128    1080.6113    1033.6525    2029.2806    387.22405 
 1627000    285.96496    1014.1689   -90.835783    1105.0047    1009.2502    2023.4191    391.47207 
 1628000    288.58733    1043.9294   -83.835193    1127.7645    1018.5052    2062.4346    376.63806 
 1629000    278.56434    1051.7409    -66.09928    1117.8402     983.1313    2034.8722    378.72139 
 1630000    283.67531    1036.1255   -80.465804    1116.5913    1001.1694    2037.2949    382.43186 
 1631000    278.50578    1047.3809   -86.904307    1134.2852    982.92464    2030.3055    376.38196 
 1632000    273.49946    1059.7726   -80.254245    1140.0268    965.25592    2025.0285    383.82106 
 1633000    289.94962    1037.1508   -96.421638    1133.5724    1023.3131    2060.4639    385.41565 
 1634000    283.54078    1021.8121   -92.559361    1114.3715    1000.6946    2022.5067    383.35524 
 1635000    273.82462    1064.9098   -76.344468    1141.2543     966.4035    2031.3133     385.6046 
 1636000    282.17206    1053.7644   -79.039709    1132.8041    995.86396    2049.6284    386.67437 
 1637000    288.21785    1074.4379   -96.402239    1170.8401    1017.2012    2091.6391    382.23133 
 1638000    284.47669    1019.6415   -86.981542    1106.6231    1003.9977    2023.6392    381.63784 
 1639000     287.0881     1017.193    -90.33738    1107.5303     1013.214     2030.407    382.31603 
 1640000    285.30935    1010.9417   -105.07736    1116.0191    1006.9363    2017.8781    379.47824 
 1641000    275.80143    1026.6427   -89.998166    1116.6408    973.38023    2000.0229    377.26264 
 1642000    285.45755    1024.7763   -89.647193    1114.4235    1007.4594    2032.2357    376.35065 
 1643000    287.73432    1036.1819    -76.77399    1112.9559    1015.4947    2051.6766    377.31469 
 1644000    283.23217     1033.524   -79.938484    1113.4625    999.60536    2033.1293    380.30502 
 1645000    282.86051    1060.7554   -86.367778    1147.1232    998.29368    2059.0491    390.59693 
 1646000    273.79442    1041.0592   -98.118785     1139.178    966.29693    2007.3561    377.61225 
 1647000    272.43777    1087.5522   -79.923132    1167.4753    961.50894    2049.0611     384.6928 
 1648000    288.53979    1004.3021    -101.5683    1105.8704    1018.3375    2022.6395    385.59647 
 1649000     274.6178    989.85761   -91.925147    1081.7828    969.20285    1959.0605    374.97644 
 1650000    277.69246    1001.6819   -82.870465    1084.5524    980.05418    1981.7361    395.65298 
 1651000    271.70885    986.52743    -91.80217    1078.3296    958.93636    1945.4638    386.02199 
 1652000    266.59881    951.86141   -97.944985    1049.8064    940.90161     1892.763    379.91437 
 1653000    265.01759    943.66077   -104.58848    1048.2492    935.32103    1878.9818     384.1287 
 1654000    262.59401     1032.777    -92.06476    1124.8417    926.76755    1959.5445    382.67029 
 1655000     273.1689    1009.0505   -77.175327    1086.2259     964.0893    1973.1398    382.75675 
 1656000     284.8697    1048.3987   -91.321054    1139.7197    1005.3847    2053.7833    383.75196 
 1657000    275.27783    1022.9614   -93.127823    1116.0892    971.53229    1994.4937    391.64071 
 1658000    276.09201     1033.196   -73.632143    1106.8282    974.40576    2007.6018    376.89436 
 1659000     281.1012    1033.6341   -96.307432    1129.9415    992.08459    2025.7187     385.7953 
 1660000    279.90086    1007.6993   -79.011849    1086.7112    987.84824    1995.5476    386.28235 
 1661000     275.0387    1021.9089     -80.2935    1102.2024    970.68832    1992.5972    378.61551 
 1662000    270.28394     1013.937   -79.572701    1093.5097    953.90747    1967.8445    382.37008 
 1663000    271.27368    970.28855   -97.431537    1067.7201    957.40051    1927.6891     384.0528 
 1664000    271.34612    984.56121   -89.172208    1073.7334    957.65618    1942.2174    368.98173 
 1665000    268.55195    995.92571   -97.734144    1093.6599    947.79478    1943.7205    374.58402 
 1666000    274.12925    1044.0927   -93.895717    1137.9884    967.47864    2011.5713    373.84538 
 1667000    283.60053    1000.2474   -92.508486    1092.7559    1000.9054    2001.1528    367.61413 
 1668000    280.36952     1004.215   -88.261876    1092.4769    989.50229    1993.7173    374.59765 
 1669000    277.86176    1051.4455   -91.330608    1142.7761    980.65169    2032.0972    382.93737 
 1670000    275.67387    1026.4135   -93.600761    1120.0142    972.93004    1999.3435    385.28024 
 1671000    284.82882     1029.859   -94.131401    1123.9904    1005.2404    2035.0994    380.76181 
 1672000    271.34004    1045.2765   -75.725065    1121.0016    957.63475    2002.9112    379.83513 
 1673000    287.89657    1028.1988   -79.897785    1108.0965    1016.0674    2044.2661    383.18314 
 1674000    280.18281    1068.4192   -74.628743     1143.048    988.84335    2057.2626    384.11449 
 1675000    279.09678    1061.0828   -83.376487    1144.4593    985.01043    2046.0932    379.36908 
 1676000    283.90033    1023.2986   -90.646422     1113.945    1001.9635    2025.2621      364.177 
 1677000    268.92245    1032.0464    -87.53324    1119.5797    949.10239    1981.1488    364.24024 
 1678000    282.22857    1009.3002    -95.74264    1105.0428    996.06339    2005.3636    375.60278 
 1679000    277.00599    1037.7286   -90.529014    1128.2576    977.63147    2015.3601    375.41865 
 1680000    275.02899    1015.1433   -84.137288    1099.2806    970.65407    1985.7974    377.11353 
 1681000    278.64654    970.79201   -101.22405    1072.0161    983.42143    1954.2134    375.39377 
 1682000    271.05746    1039.2081   -91.526601    1130.7347    956.63742    1995.8456     385.8369 
 1683000    270.08955    1037.6834   -87.628966    1125.3124     953.2214    1990.9048    388.33275 
 1684000    279.78422    1041.9582   -85.670092    1127.6282     987.4366    2029.3948    390.58489 
 1685000    274.42418    993.28476   -69.590437    1062.8752    968.51952    1961.8043    384.48876 
 1686000    280.49649    1032.1495    -85.50173    1117.6513    989.95041    2022.0999     386.9062 
 1687000    286.51914    999.15963   -82.340528    1081.5002     1011.206    2010.3656    386.58738 
 1688000    273.06829    1053.8165   -88.768998    1142.5855    963.73422    2017.5507     388.9308 
 1689000    287.29613    997.76025   -85.081296    1082.8416    1013.9482    2011.7085    381.75111 
 1690000    293.76269    984.45588   -90.121252    1074.5771    1036.7705    2021.2264    379.12973 
 1691000    279.82867    1042.6078   -76.872683    1119.4804    987.59347    2030.2012    388.57757 
 1692000    277.47116     1007.871   -84.359387    1092.2304    979.27318    1987.1442    389.57911 
 1693000    272.80119    1032.6835   -87.164105    1119.8476    962.79154    1995.4751    390.97149 
 1694000    266.66747    1029.5143   -82.075458    1111.5898    941.14393    1970.6582    389.21099 
 1695000     285.6791    1001.7054   -87.239219    1088.9447    1008.2413    2009.9467    396.20204 
 1696000    268.16931    1028.7596   -85.882388     1114.642    946.44435     1975.204    392.16792 
 1697000    273.24265    1016.2335   -84.296328    1100.5298    964.34957    1980.5831     389.2694 
 1698000    284.13491    1020.0862   -94.771518    1114.8577    1002.7914    2022.8776    394.84982 
 1699000    279.28314    1050.1715   -97.600482    1147.7719    985.66815    2035.8396    387.28102 
 1700000     294.0647    987.79761    -100.6152    1088.4128    1037.8364     2025.634    389.97568 
 1701000     285.7067    1016.7045   -75.082342    1091.7869    1008.3387    2025.0432    383.46077 
 1702000    291.36942    1070.9178   -72.534665    1143.4525     1028.324    2099.2418    390.20338 
 1703000    288.49525    1074.9401   -82.221121    1157.1613    1018.1803    2093.1204    384.06365 
 1704000     283.7799    1076.9715   -84.086332    1161.0579    1001.5385      2078.51     388.7278 
 1705000    279.05727    1033.7194    -80.32902    1114.0484    984.87099    2018.5904    390.18862 
 1706000    282.66101    1067.6475   -85.898808    1153.5463    997.58961    2065.2371    389.85055 
 1707000    295.97799    1037.9424   -74.191678    1112.1341    1044.5889    2082.5314    390.52337 
 1708000    275.06531     1040.086    -77.42247    1117.5085    970.78224    2010.8682    389.77042 
 1709000     271.9545    1079.6167   -74.892539    1154.5093    959.80333      2039.42    385.47068 
 1710000    295.75836    1085.9827   -85.127031    1171.1097    1043.8138    2129.7965    384.87729 
 1711000    283.03938    1054.9067   -78.312715    1133.2194    998.92498    2053.8317    378.26135 
 1712000    281.39981    1072.5247   -85.514403    1158.0391    993.13845    2065.6632    376.60111 
 1713000    282.22006    1031.6526   -80.890606    1112.5432    996.03335     2027.686     388.1365 
 1714000    280.77685    1026.8215   -89.714824    1116.5363    990.93988    2017.7613     384.6546 
 1715000    276.02646     1037.179   -94.662082    1131.8411    974.17442    2011.3534    382.47972 
 1716000    290.34457    1023.3435   -89.747945    1113.0914     1024.707    2048.0505    383.32655 
 1717000    299.48911    993.19916   -84.858206    1078.0574    1056.9807    2050.1798    382.47136 
 1718000    279.93261    1038.0073   -90.807504    1128.8148    987.96032    2025.9677    380.58702 
 1719000    290.05715    1038.6179   -79.455129     1118.073    1023.6927    2062.3106     383.0009 
 1720000    279.86652    1033.8508   -71.411673    1105.2625    987.72707    2021.5779    387.06178 
 1721000    278.94904    997.54986   -75.453187    1073.0031    984.48902    1982.0389    389.09012 
 1722000    275.06291    1009.8997   -95.656097    1105.5558    970.77377    1980.6734     385.7655 
 1723000    282.98745    1017.2171   -86.570509    1103.7876    998.74168    2015.9588    383.47881 
 1724000    262.13199    1039.7231   -80.013523    1119.7366    925.13694      1964.86    383.37875 
 1725000    256.54644    1034.0167    -97.99106    1132.0077      905.424    1939.4407    388.96841 
 1726000    261.83788    1036.5142   -83.535143    1120.0494    924.09897    1960.6132    381.42007 
 1727000    277.05618    1045.9584   -85.136451    1131.0948    977.80859    2023.7669    387.37467 
 1728000    277.18036     1046.814   -73.927479    1120.7415    978.24686    2025.0608    397.74125 
 1729000    269.95355    1054.7209   -69.480369    1124.2012    952.74143    2007.4623    390.60198 
 1730000    277.25959    1070.7334   -64.144731    1134.8781    978.52647    2049.2598    398.31158 
 1731000    296.61595    1062.6185   -78.451437    1141.0699    1046.8405    2109.4589    398.77649 
 1732000    280.95951    1087.5548   -76.087978    1163.6428    991.58453    2079.1393    394.35189 
 1733000    283.00339    1034.2629   -91.844861    1126.1077    998.79796    2033.0608      397.128 
 1734000    280.38425    1045.2181   -75.269202    1120.4873    989.55428    2034.7724    390.29606 
 1735000    286.24542    1044.3442   -77.672812     1122.017      1010.24    2054.5842    391.72244 
 1736000    282.19938    1004.8311   -94.278163    1099.1093    995.96038    2000.7915    395.31936 
 1737000    270.94156      1039.17   -86.785673    1125.9557    956.22839    1995.3984     389.2058 
 1738000    282.23776    1055.6218   -76.819138     1132.441    996.09583    2051.7176    389.05415 
 1739000    280.42923    1030.9239   -76.842775    1107.7667    989.71304    2020.6369    391.68916 
 1740000    288.37111    1076.7051    -77.43428    1154.1394    1017.7421    2094.4473      405.266 
 1741000    282.24816    1054.6262   -89.178741     1143.805    996.13253    2050.7588    398.01725 
 1742000    281.99421    1021.5187    -90.07679    1111.5955    995.23626    2016.7549    391.76575 
 1743000    274.71594    1038.8851   -73.453242    1112.3383    969.54923    2008.4343    396.31618 
 1744000    286.43264    1018.7749   -80.790112     1099.565    1010.9007    2029.6756    394.23788 
 1745000    289.75334    1028.9637   -80.114924    1109.0786    1022.6204    2051.5841    390.54149 
 1746000    281.20319    1002.5334   -88.940345    1091.4737    992.44454    1994.9779    385.39793 
 1747000    283.64782     1024.886   -83.352696    1108.2387    1001.0723    2025.9583    388.43963 
 1748000    288.05056    1005.4714   -85.211229    1090.6827    1016.6108    2022.0823    393.68196 
 1749000     295.2854    1034.4081   -76.290817     1110.699    1042.1446    2076.5527    388.53863 
 1750000    290.09855    997.87048   -94.526669    1092.3972    1023.8388    2021.7092    390.06662 
 1751000    285.15533    1033.9878   -77.881497    1111.8693    1006.3928    2040.3805    383.08843 
 1752000    283.56639    1063.1379   -82.946381    1146.0843    1000.7849    2063.9228    385.96167 
 1753000    271.87449    1047.2877   -61.286996    1108.5747    959.52095    2006.8087    393.88043 
 1754000     292.9255    1030.0378   -87.170205     1117.208    1033.8158    2063.8537    394.90997 
 1755000    285.40222    1056.4475   -86.345318    1142.7929    1007.2641    2063.7116    388.25816 
 1756000    277.90073    1059.4089    -85.81995    1145.2288    980.78925    2040.1981    390.62974 
 1757000    286.31654    1103.3352   -69.468347    1172.8035     1010.491    2113.8261    392.63012 
 1758000    286.83269    1098.0369    -81.18612     1179.223    1012.3126    2110.3495     393.5239 
 1759000    285.33474     1056.738   -74.506961     1131.245    1007.0259     2063.764    382.97167 
 1760000    280.96525    1069.6335   -85.106413    1154.7399     991.6048    2061.2383    396.84598 
 1761000    282.18817    1029.6256    -66.83123    1096.4569    995.92081    2025.5464    392.12583 
 1762000    289.51388    988.42912   -77.054009    1065.4831    1021.7753    2010.2044    388.07535 
 1763000    283.38392    1010.3365   -80.353899    1090.6904    1000.1409    2010.4775    389.87291 
 1764000    286.71331    1044.3551   -80.866334    1125.2214    1011.8913    2056.2464    398.97922 
 1765000    291.47102     1017.079   -75.698403    1092.7774    1028.6826    2045.7615    397.03711 
 1766000    271.05569    1057.7071   -85.348101    1143.0552    956.63119    2014.3383    394.53559 
 1767000    288.88667    1001.4038   -84.281164     1085.685    1019.5617    2020.9655    396.14002 
 1768000    279.07121    1024.5643    -103.4154    1127.9797    984.92018    2009.4845    388.13485 
 1769000    284.95812    1029.9849    -102.3434    1132.3283    1005.6967    2035.6817    385.68309 
 1770000    275.50107    981.30482   -90.479838    1071.7847    972.32018     1953.625    389.42932 
 1771000    277.32788    1012.5153   -98.154654      1110.67    978.76748    1991.2828    392.64971 
 1772000    279.65319    1038.7717   -75.941009    1114.7127    986.97416    2025.7459    396.16764 
 1773000    280.53088    1047.0367   -91.359029    1138.3957    990.07176    2037.1084    394.91604 
 1774000    287.75451    1040.3722    -66.58279     1106.955     1015.566    2055.9382    391.54713 
 1775000    274.67635    1019.8525   -75.812873    1095.6654     969.4095     1989.262    393.72651 
 1776000    285.95529    1015.1654   -83.991841    1099.1572     1009.216    2024.3814    397.36696 
 1777000    283.81571    996.87822   -89.471212    1086.3494    1001.6649    1998.5431    395.71031 
 1778000    283.10218     1052.669    -78.23331    1130.9023    999.14661    2051.8156    393.28728 
 1779000    284.98693    1006.7699   -92.056608    1098.8266    1005.7984    2012.5684    396.57618 
 1780000    284.41507    994.78569    -96.33332     1091.119    1003.7802    1998.5659    391.46748 
 1781000    284.77018     1048.021   -73.180408    1121.2014    1005.0334    2053.0544    408.23231 
 1782000    282.57464    1047.9481   -81.961217    1129.9094    997.28478    2045.2329    402.83781 
 1783000    281.13028    1025.1771   -84.810768    1109.9879    992.18724    2017.3644    397.31137 
 1784000    277.99975     1040.835   -74.611246    1115.4462    981.13871    2021.9737     388.6438 
 1785000    287.59063    1020.1757   -75.517296    1095.6929    1014.9876    2035.1633    395.11683 
 1786000     280.0161    1074.0748   -57.386401    1131.4612    988.25498    2062.3298    398.46665 
 1787000    285.68018    1043.1066   -76.520065    1119.6267    1008.2451    2051.3517    408.22277 
 1788000    291.71453    1003.8304   -77.338539     1081.169     1029.542    2033.3724    395.96373 
 1789000    285.61361    1051.2445   -87.881654    1139.1262    1008.0102    2059.2547    392.43629 
 1790000    287.66816    1024.3695   -79.662236    1104.0318    1015.2612    2039.6308    395.13618 
 1791000    275.14676    1074.4818   -78.162262    1152.6441     971.0697    2045.5515    390.88775 
 1792000    280.51288    1068.0062   -80.798087    1148.8043    990.00823    2058.0145    396.77977 
 1793000     279.1611    1037.8929   -78.486122    1116.3791    985.23744    2023.1304    396.49163 
 1794000    290.42372    1018.4198   -79.285024    1097.7048    1024.9864    2043.4062    394.35965 
 1795000    273.43103    1054.2656   -82.826523    1137.0921    965.01441      2019.28    402.74347 
 1796000    268.11468    1049.1377   -70.794256     1119.932    946.25155    1995.3893    389.84404 
 1797000    276.84684    1057.3722   -77.466039    1134.8382    977.06978    2034.4419    395.70276 
 1798000     277.1959    1004.8157   -75.861378    1080.6771    978.30168    1983.1174    394.38032 
 1799000     287.7455    1035.7977   -85.993778    1121.7915    1015.5342    2051.3319    389.90552 
 1800000     288.7231    1056.4552   -75.062997    1131.5182    1018.9844    2075.4397    391.71768 
 1801000     297.1036    1045.4466   -76.244218    1121.6909    1048.5615    2094.0082    390.07694 
 1802000     286.7106    1076.5401   -79.857892     1156.398    1011.8817    2088.4219    388.33897 
 1803000    284.05665    1030.7527   -83.778502    1114.5312    1002.5152    2033.2679    397.61883 
 1804000     294.2192    1012.6861   -78.439767    1091.1259    1038.3817    2051.0678    388.74529 
 1805000    286.59214    1084.2424   -88.022012    1172.2645    1011.4636    2095.7061    393.57121 
 1806000    283.08513     1033.058   -75.746792    1108.8048    999.08644    2032.1444    394.89944 
 1807000    289.21993    1018.3467   -71.829711    1090.1764    1020.7378    2039.0845    400.95681 
 1808000     284.1341    1010.1801   -75.025016    1085.2051    1002.7885    2012.9686    400.36416 
 1809000    279.42697     1042.612   -90.616222    1133.2282    986.17575    2028.7877    396.98091 
 1810000     285.1239    1018.7497   -70.819759    1089.5695    1006.2818    2025.0315    391.18106 
 1811000    283.06488    1030.3228   -82.946855    1113.2697    999.01495    2029.3378    389.54706 
 1812000    285.22183    1063.5947   -84.220044    1147.8147    1006.6274    2070.2221    384.83346 
 1813000    285.89175    1013.3236   -87.871249    1101.1949    1008.9918    2022.3154    392.81178 
 1814000    276.03853    1063.8142   -82.900502    1146.7147    974.21701    2038.0312    392.53662 
 1815000    287.56319    1052.8062    -75.42432    1128.2305    1014.8908    2067.6969     397.7714 
 1816000    275.62515    1048.1001   -81.898337    1129.9985    972.75809    2020.8582    397.57709 
 1817000    271.62293    1020.9227   -68.160299     1089.083    958.63313    1979.5559    397.40283 
 1818000    291.76032    991.23335   -82.211704    1073.4451    1029.7036     2020.937    390.71021 
 1819000     271.7866    1012.1061   -91.839977    1103.9461    959.21077    1971.3169    389.37917 
 1820000    268.43148    1027.8395   -89.374093    1117.2136    947.36962    1975.2092    388.72251 
 1821000    281.73481    982.41018   -85.508638    1067.9188    994.32077     1976.731    384.54408 
 1822000    278.09184    1045.8532   -79.541957    1125.3952     981.4637    2027.3169    391.33462 
 1823000    276.80544    1078.0042   -78.735651    1156.7398    976.92364    2054.9278    389.26564 
 1824000    282.07367    1008.4674    -82.15982    1090.6273     995.5167    2003.9841     390.3795 
 1825000    281.34619    1010.7274   -77.615687    1088.3431    992.94922    2003.6767    391.20392 
 1826000    276.52108      1015.07   -80.415038    1095.4851    975.92006    1990.9901    384.64769 
 1827000    260.87941    1026.0069   -94.228371    1120.2353    920.71625    1946.7232    399.32036 
 1828000    275.45631    999.45462   -95.001948    1094.4566    972.16218    1971.6168    389.56469 
 1829000    271.34855    1039.4108   -86.688135    1126.0989    957.66477    1997.0755    389.33721 
 1830000    279.16631    1051.0543   -73.375698      1124.43    985.25583    2036.3101    391.15068 
 1831000    276.06256    1049.5236   -90.894037    1140.4176    974.30181    2023.8254     393.4993 
 1832000    277.50612    1066.0172    -68.58743    1134.6046    979.39655    2045.4138    395.55718 
 1833000    282.07633    1068.1128   -65.846146    1133.9589     995.5261    2063.6389    396.41124 
 1834000    281.71824    1058.2148   -79.039994    1137.2548    994.26229    2052.4771    391.85151 
 1835000    286.30559    1033.8793   -83.232135    1117.1115    1010.4523    2044.3317    391.64707 
 1836000    281.42989    1003.0784   -98.088376    1101.1668    993.24461     1996.323     390.3002 
 1837000    289.48549    1040.4685   -99.092885    1139.5614    1021.6751    2062.1436    391.16934 
 1838000    281.90667     1030.519   -109.81117    1140.3302    994.92733    2025.4463    391.81693 
 1839000     284.9047    1035.9855    -77.38674    1113.3722    1005.5082    2041.4937    397.16257 
 1840000    289.06107    1023.2311   -89.288781    1112.5199    1020.1772    2043.4083    390.42924 
 1841000    272.21371    1100.7401   -81.010047    1181.7502    960.71814    2061.4583    393.84953 
 1842000      275.157    1061.8364   -77.079596     1138.916    971.10584    2032.9422    405.65471 
 1843000    286.72409    1044.6308   -79.150146     1123.781    1011.9293    2056.5602    397.37938 
 1844000    276.72999    1066.6615   -82.106653    1148.7682    976.65735    2043.3189    394.53121 
 1845000    284.33472    1019.4697   -71.930975    1091.4007    1003.4966    2022.9663    401.53328 
 1846000     281.8762    1056.4084   -70.031257    1126.4397    994.81977    2051.2282    393.87911 
 1847000    291.52917    1030.6305   -79.311593    1109.9421    1028.8878    2059.5183    391.16772 
 1848000    275.57802    1043.8577   -87.256345     1131.114    972.59176    2016.4495    388.80671 
 1849000    281.07908     1036.795   -65.500629    1102.2957    992.00652    2028.8016    388.31819 
 1850000    284.28496    1027.5538    -84.75511    1112.3089     1003.321    2030.8748    384.43257 
 1851000    276.71402    1043.7999   -71.439067    1115.2389    976.60099    2020.4009    386.80314 
 1852000    281.81411     986.8669    -88.94925    1075.8162    994.60065    1981.4676    390.01257 
 1853000     281.5928    992.44838   -89.260266    1081.7086    993.81958     1986.268    377.49115 
 1854000    276.84043    1062.7609   -88.914306    1151.6753    977.04716    2039.8081    388.27739 
 1855000    295.74265    1004.5051   -99.381352    1103.8864    1043.7584    2048.2634    383.37872 
 1856000    278.59966    1024.0437   -78.981727    1103.0255    983.25594    2007.2997    385.39836 
 1857000    285.38445     1041.983   -77.595713    1119.5787    1007.2014    2049.1844    393.36333 
 1858000    276.80293    1026.5722   -88.909476    1115.4817    976.91481     2003.487    397.26037 
 1859000    272.45317    1015.0835   -82.077874    1097.1614    961.56328    1976.6468    400.42981 
 1860000    276.49935    1037.4867   -72.087328    1109.5741    975.84337    2013.3301    392.47501 
 1861000    277.14581    1041.6534   -86.897994    1128.5514    978.12492    2019.7783    395.42426 
 1862000    286.37467    1008.8577   -90.411233     1099.269    1010.6961    2019.5539    390.62433 
 1863000    273.90694    1046.1745   -79.405426      1125.58    966.69404    2012.8686    390.93654 
 1864000    282.62694    988.63462   -93.656259    1082.2909    997.46936     1986.104    393.72837 
 1865000    280.42954    1054.4167   -78.447045    1132.8637    989.71412    2044.1308    394.45629 
 1866000    276.47399    1073.9004   -80.898312    1154.7987    975.75386    2049.6543     396.0387 
 1867000    281.63127     1006.763   -83.077894    1089.8409    993.95534    2000.7184    396.23005 
 1868000    274.48085     1076.093   -87.749781    1163.8428    968.71954    2044.8125    401.44306 
 1869000    280.66165    1019.8319    -67.70562    1087.5375     990.5333    2010.3651    393.62086 
 1870000    276.29034    1046.8251   -82.081589    1128.9067    975.10574    2021.9308    395.27274 
 1871000    290.44243     1013.147   -95.923388    1109.0704    1025.0524    2038.1994    388.32378 
 1872000    278.88202    1026.6244   -85.748593     1112.373    984.25248    2010.8769    393.70144 
 1873000    275.95644    1044.3243   -77.401695    1121.7259    973.92731    2018.2516     395.2283 
 1874000    288.41453    1053.8347   -83.696683    1137.5314    1017.8954    2071.7301    399.40425 
 1875000     284.0222    1015.1805   -79.770514     1094.951    1002.3936    2017.5742    396.15946 
 1876000     279.1044    1029.6376   -88.260898    1117.8985    985.03732    2014.6749    389.02498 
 1877000    278.56169    1022.7325   -82.771479     1105.504    983.12194    2005.8544    387.51129 
 1878000    283.66028    1045.8284   -78.831273    1124.6597    1001.1163    2046.9447    400.15404 
 1879000    270.93545    1033.7132   -76.671385    1110.3846    956.20681      1989.92    400.60434 
 1880000    280.68263     1037.923   -72.998467    1110.9215    990.60734    2028.5304    402.16894 
 1881000    270.54044    1070.0959   -65.181157     1135.277    954.81272    2024.9086    405.53726 
 1882000    280.35545    1005.6698   -96.444911    1102.1147    989.45263    1995.1224    397.27053 
 1883000     284.2315    1010.6242   -87.710164    1098.3343    1003.1323    2013.7564    397.36587 
 1884000    278.51995    1027.9941   -89.109837     1117.104    982.97462    2010.9687    398.89262 
 1885000    281.27518    1056.4161   -72.340038    1128.7562     992.6986    2049.1147     397.3268 
 1886000    272.77402    1045.9007   -82.191516    1128.0922    962.69566    2008.5963    392.28997 
 1887000    275.81924    1017.7461   -93.858859     1111.605    973.44308    1991.1892    388.95119 
 1888000    273.58002    1018.8239   -89.241201    1108.0651    965.54025    1984.3642    393.68099 
 1889000    266.47474    998.76926   -79.239764     1078.009    940.46371     1939.233     395.8673 
 1890000    273.68647    1018.8136    -84.86909    1103.6827    965.91593    1984.7295    386.53561 
 1891000    291.78696     1020.128    -78.81066    1098.9387    1029.7976    2049.9256    395.63542 
 1892000    281.21323    1038.8463   -80.370556    1119.2169    992.47998    2031.3263    400.39163 
 1893000    285.28998    1022.0437   -70.479273     1092.523     1006.868    2028.9117    399.43444 
 1894000    278.99175    1046.6266   -80.229425     1126.856    984.63974    2031.2663    398.61248 
 1895000     280.9302    1015.0237   -96.534519    1111.5582    991.48107    2006.5048    397.04311 
 1896000    281.42025     1022.738   -82.871006     1105.609    993.21062    2015.9487    391.85587 
 1897000      274.125     1031.421   -74.550185    1105.9711    967.46362    1998.8846    397.10388 
 1898000    287.99394    1033.3821   -82.138505    1115.5206     1016.411    2049.7931    399.98172 
 1899000    294.09417     1064.085    -79.83982    1143.9248    1037.9404    2102.0255    396.52508 
 1900000    292.40664    1061.3041    -73.72415    1135.0282    1031.9846    2093.2887    392.82916 
 1901000    292.10363    1046.0892   -71.866209    1117.9554    1030.9152    2077.0044    397.57131 
 1902000    282.04874    1051.9585   -79.260312    1131.2188    995.42871    2047.3872     391.0313 
 1903000    288.78555    1049.0439   -70.372085     1119.416    1019.2048    2068.2487    397.79167 
 1904000    282.66665    1015.2701   -60.169675    1075.4397    997.60949    2012.8795     393.9733 
 1905000    279.47643    1044.6816   -72.861612    1117.5432    986.35031    2031.0319     393.1762 
 1906000    283.45772    1034.0611    -72.31728    1106.3784    1000.4014    2034.4625    404.88762 
 1907000    288.04542    1021.6093   -80.536616    1102.1459    1016.5927     2038.202    392.38922 
 1908000    277.48544    1064.6691   -88.886844     1153.556    979.32355    2043.9927    391.73435 
 1909000    272.01883    1034.2292   -81.959935    1116.1892    960.03036    1994.2596     387.4584 
 1910000    273.99482    1033.5355   -93.385233    1126.9207    967.00417    2000.5397    387.76775 
 1911000    288.50545    1034.7367    -86.27516    1121.0119    1018.2163     2052.953    390.41194 
 1912000    279.20303    1047.5543   -96.834099    1144.3884    985.38541    2032.9397    386.15386 
 1913000    268.71827    1038.9587   -70.591227    1109.5499    948.38177    1987.3405    390.96132 
 1914000    278.86269    1080.3196   -79.016425    1159.3361    984.18427    2064.5039    392.11094 
 1915000    281.01258    1037.8344   -71.973145    1109.8075    991.77183    2029.6062    396.67637 
 1916000    288.58676    1048.8914   -55.164129    1104.0555    1018.5032    2067.3946    386.02774 
 1917000    286.95017    1034.3899   -61.221332    1095.6113    1012.7272    2047.1172    388.16612 
 1918000    284.84227    1046.8374   -65.333895    1112.1713    1005.2879    2052.1252     388.0864 
 1919000    275.76048    1056.0492   -82.127898    1138.1771     973.2357    2029.2849    392.89265 
 1920000    271.41988    1032.8938   -86.096208      1118.99     957.9165    1990.8103     392.8079 
 1921000    276.06521    1022.1172   -79.074556    1101.1917    974.31117    1996.4283    395.06694 
 1922000    280.23571     1028.595   -93.007155    1121.6021    989.03003     2017.625     393.9471 
 1923000    277.09355    998.09576   -82.149362    1080.2451    977.94047    1976.0362     385.8113 
 1924000    270.63016    1035.8601   -77.206185    1113.0663    955.12936    1990.9894     383.6641 
 1925000    278.90895    983.35142   -97.951981    1081.3034    984.34752    1967.6989    386.27269 
 1926000     267.7962    1019.8779   -93.563459    1113.4413    945.12754    1965.0054    386.82544 
 1927000    280.53002    991.81075   -90.517934    1082.3287    990.06874    1981.8795    388.25754 
 1928000     266.5491    1004.8987   -94.158525    1099.0572    940.72616    1945.6248    390.60938 
 1929000    278.44276    1001.6134   -88.873331    1090.4868    982.70222    1984.3156    390.62093 
 1930000    277.70623    1072.2811   -81.805428    1154.0865     980.1028    2052.3839    392.97885 
 1931000    276.00074    1072.3548   -86.529648    1158.8844    974.08364    2046.4384    390.64856 
 1932000    285.01061    1035.2422   -87.267208    1122.5094     1005.882    2041.1242      398.382 
 1933000    276.64437    1026.3534   -74.269186    1100.6226    976.35519    2002.7086    406.30144 
 1934000    277.80317    1070.6169   -79.820923    1150.4378    980.44493    2051.0618    401.47457 
 1935000    284.47605     1079.962    -57.58288    1137.5449    1003.9954    2083.9574    399.25333 
 1936000    289.55549    1031.0987   -95.398466    1126.4971    1021.9221    2053.0208    403.23274 
 1937000    280.38988      1076.89   -80.277196    1157.1672    989.57416    2066.4641    394.10647 
 1938000    291.54751    1020.9082   -84.095776    1105.0039    1028.9525    2049.8607    398.36208 
 1939000    290.72511    1037.0624   -70.555562    1107.6179      1026.05    2063.1124    394.65165 
 1940000    270.87809    1017.1164   -69.915037    1087.0314    956.00438    1973.1207    395.80344 
 1941000    274.73548    1043.1317   -77.139907    1120.2717    969.61819    2012.7499    397.06523 
 1942000    280.04714    1032.5397   -77.269737    1109.8094    988.36452    2020.9042    397.68729 
 1943000    284.77615     1054.956   -65.700578    1120.6566    1005.0545    2060.0105    397.28398 
 1944000    274.38589     1047.853   -74.950119    1122.8031    968.38438    2016.2374    396.96032 
 1945000    277.67288    1074.3344   -78.287036    1152.6214    979.98508    2054.3194    396.80056 
 1946000    288.74094    1042.2353   -65.640019    1107.8753    1019.0474    2061.2826     395.3213 
 1947000    287.39587    1041.3937   -68.406017    1109.7997    1014.3002    2055.6939    397.25083 
 1948000    285.04536     1035.563   -76.710239    1112.2732    1006.0046    2041.5676    401.83356 
 1949000    282.87176    1006.0767   -91.359614    1097.4363    998.33338    2004.4101    394.31183 
 1950000    278.80737    1049.5393   -90.464413    1140.0038    983.98903    2033.5284    395.45882 
 1951000    289.84653    1033.8426   -84.121081    1117.9637    1022.9493    2056.7919    394.95986 
 1952000    285.42572    1028.1387   -82.559254    1110.6979     1007.347    2035.4857    378.87692 
 1953000    275.72494    1066.8119   -58.781472    1125.5934    973.11027    2039.9222    389.65096 
 1954000    272.06873    1035.4705   -83.661178    1119.1317    960.20649     1995.677    393.68558 
 1955000    281.54628    1066.2116   -87.063222    1153.2748     993.6554     2059.867    392.09094 
 1956000    283.43238    1081.8051   -77.240362    1159.0455     1000.312    2082.1171    392.81908 
 1957000    294.58885    1036.0227   -78.285407    1114.3081    1039.6863     2075.709    391.59805 
 1958000    286.48654    1071.3476   -70.099445     1141.447     1011.091    2082.4385    370.49354 
 1959000    287.50267    1043.0722   -80.744814     1123.817